opti shel conp eigenvectors
cartesian
Al  core		0.281531972		-2.304915611		-1.821679861
Al  core		2.01311913		-0.545845256		-0.817977624
Al  core		-0.319602206		0.290882903		-1.796978083
F   core		3.600139288		-0.185690616		-0.043778023
F   core		-0.159884974		-4.005393893		-2.223248636
F   core		1.938553638		-1.519270276		-2.520305589
F   core		1.511156495		0.326300339		-2.50274242
F   core		-1.465206422		1.631206531		-2.169608911
F   core		-0.889765486		-1.219395852		-0.681177769
F   core		0.280026026		-0.924370509		-3.216359181
F   core		0.341364996		0.031275998		0.032437998
F   core		0.768762134		-1.81429561		0.014875827
F   shel		3.600139288		-0.185690616		-0.043778023
F   shel		-0.159884974		-4.005393893		-2.223248636
F   shel		1.938553638		-1.519270276		-2.520305589
F   shel		1.511156495		0.326300339		-2.50274242
F   shel		-1.465206422		1.631206531		-2.169608911
F   shel		-0.889765486		-1.219395852		-0.681177769
F   shel		0.280026026		-0.924370509		-3.216359181
F   shel		0.341364996		0.031275998		0.032437998
F   shel		0.768762134		-1.81429561		0.014875827
species
Al core 3.00
F  core 0.59
F  shel -1.59
buck
Al  core  F   shel  3760.000831  0.222000   0.00000 0.0 10.0
buck4
F   shel  F   shel  1127.7 0.2753 15.83 2.0 2.79 3.031 12.0
spring
F     20.77
xtol opt 6.000
ftol opt 5.000
gtol opt 8.000
switch_min rfo gnorm 0.01
maxcyc 2000

output xyz 006/3/sp_mod_-100/sp_mod_-100_eig
output drv 006/3/sp_mod_-100/sp_mod_-100_F_out