opti shel conp eigenvectors
cartesian
Al  core		-0.173514657		1.728593596		2.138578721
Al  core		2.429735696		2.694959025		1.749062775
Al  core		1.262729258		2.752286981		-0.663696453
F   core		0.920979352		3.166685319		2.821549232
F   core		-1.658563947		2.758438343		2.162321495
F   core		-0.57335746		0.047304582		2.73876626
F   core		1.729161369		0.941992385		1.920052234
F   core		2.884831342		1.930646672		-0.086750454
F   core		1.007355714		3.108509752		-2.409555404
F   core		1.667528868		4.088765387		0.619073665
F   core		4.030612966		3.199166411		2.445731168
F   core		-0.0899494		1.874668168		0.197959505
F   shel		0.920979352		3.166685319		2.821549232
F   shel		-1.658563947		2.758438343		2.162321495
F   shel		-0.57335746		0.047304582		2.73876626
F   shel		1.729161369		0.941992385		1.920052234
F   shel		2.884831342		1.930646672		-0.086750454
F   shel		1.007355714		3.108509752		-2.409555404
F   shel		1.667528868		4.088765387		0.619073665
F   shel		4.030612966		3.199166411		2.445731168
F   shel		-0.0899494		1.874668168		0.197959505
species
Al core 3.00
F  core 0.59
F  shel -1.59
buck
Al  core  F   shel  3760.000831  0.222000   0.00000 0.0 10.0
buck4
F   shel  F   shel  1127.7 0.2753 15.83 2.0 2.79 3.031 12.0
spring
F     20.77
xtol opt 6.000
ftol opt 5.000
gtol opt 8.000
switch_min rfo gnorm 0.01
maxcyc 2000

output xyz 004/0/sp_mod_-40/sp_mod_-40_eig
output drv 004/0/sp_mod_-40/sp_mod_-40_F_out