opti shel conp eigenvectors
cartesian
Al  core		1.38414728		-0.069450683		2.390173673
Al  core		1.193322		1.2865834		-0.0389638
Al  core		-0.217582362		0.71739025		-2.375911173
F   core		-1.732167372		-0.298042053		-2.186173206
F   core		2.071266653		-0.334681553		0.648970252
F   core		-0.008258261		1.88811969		-3.767174133
F   core		-0.39672341		1.907033353		-0.867049849
F   core		2.617167757		2.386784512		-0.335839043
F   core		1.334023639		0.027483405		-1.544756254
F   core		0.466809917		1.482826029		1.702471439
F   core		2.486073569		0.662793476		3.654932637
F   core		-0.041054925		-1.128792952		2.845876471
F   shel		-1.732167372		-0.298042053		-2.186173206
F   shel		2.071266653		-0.334681553		0.648970252
F   shel		-0.008258261		1.88811969		-3.767174133
F   shel		-0.39672341		1.907033353		-0.867049849
F   shel		2.617167757		2.386784512		-0.335839043
F   shel		1.334023639		0.027483405		-1.544756254
F   shel		0.466809917		1.482826029		1.702471439
F   shel		2.486073569		0.662793476		3.654932637
F   shel		-0.041054925		-1.128792952		2.845876471
species
Al core 3.00
F  core 0.59
F  shel -1.59
buck
Al  core  F   shel  3760.000831  0.222000   0.00000 0.0 10.0
buck4
F   shel  F   shel  1127.7 0.2753 15.83 2.0 2.79 3.031 12.0
spring
F     20.77
xtol opt 6.000
ftol opt 5.000
gtol opt 8.000
switch_min rfo gnorm 0.01
maxcyc 2000

output xyz 001/3/sp_mod_-40/sp_mod_-40_eig
output drv 001/3/sp_mod_-40/sp_mod_-40_F_out