opti shel conp eigenvectors
cartesian
Al  core		0.181959193		-0.754609558		1.789897739
Al  core		2.415508165		-1.634929472		-0.426654297
Al  core		-0.791604181		-1.830774558		-1.134572143
F   core		3.501500307		-0.269041993		-0.87639278
F   core		-1.759456054		-0.549121488		-1.973563397
F   core		2.878676595		-3.415831294		-0.515639043
F   core		-1.047270766		-3.624837602		-1.33439392
F   core		1.828699197		-1.430440193		1.287773402
F   core		0.930502164		-1.387315282		-1.482804865
F   core		-0.105237048		-1.434606363		3.430017089
F   core		0.211113571		1.045813099		1.365595136
F   core		-1.002285468		-1.581154183		0.697373214
F   shel		3.501500307		-0.269041993		-0.87639278
F   shel		-1.759456054		-0.549121488		-1.973563397
F   shel		2.878676595		-3.415831294		-0.515639043
F   shel		-1.047270766		-3.624837602		-1.33439392
F   shel		1.828699197		-1.430440193		1.287773402
F   shel		0.930502164		-1.387315282		-1.482804865
F   shel		-0.105237048		-1.434606363		3.430017089
F   shel		0.211113571		1.045813099		1.365595136
F   shel		-1.002285468		-1.581154183		0.697373214
species
Al core 3.00
F  core 0.59
F  shel -1.59
buck
Al  core  F   shel  3760.000831  0.222000   0.00000 0.0 10.0
buck4
F   shel  F   shel  1127.7 0.2753 15.83 2.0 2.79 3.031 12.0
spring
F     20.77
xtol opt 6.000
ftol opt 5.000
gtol opt 8.000
switch_min rfo gnorm 0.01
maxcyc 2000

output xyz 002/0/sp_mod_80/sp_mod_80_eig
output drv 002/0/sp_mod_80/sp_mod_80_F_out