opti shel conp eigenvectors
cartesian
Al  core		0.276474072		-2.327802311		-1.829188961
Al  core		2.02545853		-0.543278256		-0.787418924
Al  core		-0.326883606		0.311202603		-1.820027583
F   core		3.613744088		-0.182891016		-0.006944923
F   core		-0.165669074		-4.031863593		-2.232088936
F   core		2.079335838		-1.779936876		-2.303207189
F   core		1.530517495		0.651304939		-2.26556362
F   core		-1.473026122		1.654876631		-2.197601811
F   core		-1.106682486		-1.266022852		-0.968144869
F   core		-0.160288274		-1.027083409		-3.230040981
F   core		0.503485096		0.402623398		-0.042009502
F   core		1.103730134		-2.10064111		-0.064304973
F   shel		3.613744088		-0.182891016		-0.006944923
F   shel		-0.165669074		-4.031863593		-2.232088936
F   shel		2.079335838		-1.779936876		-2.303207189
F   shel		1.530517495		0.651304939		-2.26556362
F   shel		-1.473026122		1.654876631		-2.197601811
F   shel		-1.106682486		-1.266022852		-0.968144869
F   shel		-0.160288274		-1.027083409		-3.230040981
F   shel		0.503485096		0.402623398		-0.042009502
F   shel		1.103730134		-2.10064111		-0.064304973
species
Al core 3.00
F  core 0.59
F  shel -1.59
buck
Al  core  F   shel  3760.000831  0.222000   0.00000 0.0 10.0
buck4
F   shel  F   shel  1127.7 0.2753 15.83 2.0 2.79 3.031 12.0
spring
F     20.77
xtol opt 6.000
ftol opt 5.000
gtol opt 8.000
switch_min rfo gnorm 0.01
maxcyc 2000

output xyz 006/1/sp_mod_10/sp_mod_10_eig
output drv 006/1/sp_mod_10/sp_mod_10_F_out