opti shel conp eigenvectors
cartesian
Al  core		-0.035757657		1.630298196		2.139671621
Al  core		2.441836796		2.981129525		1.593152675
Al  core		1.208271558		2.842963181		-0.599424353
F   core		1.017255352		3.057917219		2.826713032
F   core		-1.675641047		2.746842143		2.179945295
F   core		-0.48417666		-0.036134718		2.75570656
F   core		1.722466669		0.538310085		1.967135934
F   core		3.133290142		1.748424772		-0.024639854
F   core		1.101875414		3.008991452		-2.339967804
F   core		1.786253868		3.785829187		0.627197765
F   core		4.235668966		3.148555711		2.517081068
F   core		0.0319865		1.808264068		0.193243905
F   shel		1.017255352		3.057917219		2.826713032
F   shel		-1.675641047		2.746842143		2.179945295
F   shel		-0.48417666		-0.036134718		2.75570656
F   shel		1.722466669		0.538310085		1.967135934
F   shel		3.133290142		1.748424772		-0.024639854
F   shel		1.101875414		3.008991452		-2.339967804
F   shel		1.786253868		3.785829187		0.627197765
F   shel		4.235668966		3.148555711		2.517081068
F   shel		0.0319865		1.808264068		0.193243905
species
Al core 3.00
F  core 0.59
F  shel -1.59
buck
Al  core  F   shel  3760.000831  0.222000   0.00000 0.0 10.0
buck4
F   shel  F   shel  1127.7 0.2753 15.83 2.0 2.79 3.031 12.0
spring
F     20.77
xtol opt 6.000
ftol opt 5.000
gtol opt 8.000
switch_min rfo gnorm 0.01
maxcyc 2000

output xyz 004/5/sp_mod_70/sp_mod_70_eig
output drv 004/5/sp_mod_70/sp_mod_70_F_out