single eigenvectors
cartesian
Al  core		-1.656297389		2.620225085		-1.178521206
Al  core		-0.56260137		0.001563804		-2.361745356
Al  core		-2.218593386		-0.335372712		-0.544611049
F   core		-0.80799048		3.870608711		-0.173593373
F   core		-2.97407837		3.249956066		-2.262676319
F   core		-1.356223888		-1.679687837		-1.702356154
F   core		-2.50874408		1.45810591		0.045791985
F   core		-3.16055013		-1.481398146		0.513638164
F   core		0.57638149		-0.72106326		-3.58693
F   core		-0.342310293		1.898899522		-2.331454922
F   core		-2.485221357		0.458906151		-2.334692828
F   core		-0.332651963		0.21348598		-0.418517988
F   shel		-0.80799048		3.870608711		-0.173593373
F   shel		-2.97407837		3.249956066		-2.262676319
F   shel		-1.356223888		-1.679687837		-1.702356154
F   shel		-2.50874408		1.45810591		0.045791985
F   shel		-3.16055013		-1.481398146		0.513638164
F   shel		0.57638149		-0.72106326		-3.58693
F   shel		-0.342310293		1.898899522		-2.331454922
F   shel		-2.485221357		0.458906151		-2.334692828
F   shel		-0.332651963		0.21348598		-0.418517988
species
Al core 3.00
F  core 0.59
F  shel -1.59
buck
Al  core  F   shel  3760.000831  0.222000   0.00000 0.0 10.0
buck4
F   shel  F   shel  1127.7 0.2753 15.83 2.0 2.79 3.031 12.0
spring
F     20.77
xtol opt 6.000
ftol opt 5.000
gtol opt 8.000
switch_min rfo gnorm 0.01
maxcyc 2000

output xyz 005/2/sp_mod_40/sp_mod_40_eig