single eigenvectors
cartesian
Al  core		0.324255995		-0.450895078		1.901484117
Al  core		2.567711363		-1.851604654		-0.58299349
Al  core		-1.081289782		-1.89846734		-1.114586536
F   core		3.622977111		-0.295396393		-1.196564803
F   core		-1.956466451		-0.367051889		-2.009388221
F   core		2.770150187		-3.808717677		-0.480863792
F   core		-1.255167573		-3.860413585		-1.067279469
F   core		2.007216796		-1.462003332		1.3518262
F   core		0.856542164		-1.432506482		-1.665740065
F   core		0.075530151		-1.272707841		3.681257081
F   core		0.415809579		1.331133966		1.115940672
F   core		-1.105997469		-1.501985321		0.898287612
F   shel		3.622977111		-0.295396393		-1.196564803
F   shel		-1.956466451		-0.367051889		-2.009388221
F   shel		2.770150187		-3.808717677		-0.480863792
F   shel		-1.255167573		-3.860413585		-1.067279469
F   shel		2.007216796		-1.462003332		1.3518262
F   shel		0.856542164		-1.432506482		-1.665740065
F   shel		0.075530151		-1.272707841		3.681257081
F   shel		0.415809579		1.331133966		1.115940672
F   shel		-1.105997469		-1.501985321		0.898287612
species
Al core 3.00
F  core 0.59
F  shel -1.59
buck
Al  core  F   shel  3760.000831  0.222000   0.00000 0.0 10.0
buck4
F   shel  F   shel  1127.7 0.2753 15.83 2.0 2.79 3.031 12.0
spring
F     20.77
xtol opt 6.000
ftol opt 5.000
gtol opt 8.000
switch_min rfo gnorm 0.01
maxcyc 2000

output xyz 002/4/sp_mod_-80/sp_mod_-80_eig