single eigenvectors
cartesian
Al  core		-1.694890189		2.561588685		-1.224564406
Al  core		-0.47116857		0.017089004		-2.410681356
Al  core		-2.259238586		-0.346720712		-0.448616649
F   core		-0.75094328		3.694704311		-0.154221373
F   core		-3.01007157		3.161503666		-2.311878719
F   core		-1.375263888		-1.414768637		-1.670585754
F   core		-2.46715488		1.41312951		-0.043043615
F   core		-3.33132413		-1.384348946		0.691843764
F   core		0.71429349		-0.56120686		-3.7474476
F   core		-0.416435893		1.830379122		-2.293315322
F   core		-2.445407757		0.459186951		-2.298357628
F   core		-0.323612763		0.13412798		-0.424995188
F   shel		-0.75094328		3.694704311		-0.154221373
F   shel		-3.01007157		3.161503666		-2.311878719
F   shel		-1.375263888		-1.414768637		-1.670585754
F   shel		-2.46715488		1.41312951		-0.043043615
F   shel		-3.33132413		-1.384348946		0.691843764
F   shel		0.71429349		-0.56120686		-3.7474476
F   shel		-0.416435893		1.830379122		-2.293315322
F   shel		-2.445407757		0.459186951		-2.298357628
F   shel		-0.323612763		0.13412798		-0.424995188
species
Al core 3.00
F  core 0.59
F  shel -1.59
buck
Al  core  F   shel  3760.000831  0.222000   0.00000 0.0 10.0
buck4
F   shel  F   shel  1127.7 0.2753 15.83 2.0 2.79 3.031 12.0
spring
F     20.77
xtol opt 6.000
ftol opt 5.000
gtol opt 8.000
switch_min rfo gnorm 0.01
maxcyc 2000

output xyz 005/4/sp_mod_40/sp_mod_40_eig