opti conp conj prop eigenvectors
cartesian
Al  core        -0.077521242         1.639982307         2.155741881
Al  core         2.525360096         2.607137025         1.765721575
Al  core         1.357882199         2.664063183        -0.646819593
F   core          1.001281240         3.092532356         2.835815013
F   core         -1.578260377         2.683496296         2.177066159
F   core         -0.492122256        -0.027298830         2.753360569
F   core          1.809970654         0.868077052         1.934187104
F   core          2.964964543         1.857055830        -0.072842347
F   core          1.086689361         3.034297481        -2.395313022
F   core          1.747122785         4.014805172         0.633178043
F   core          4.110830406         3.125966481         2.459402958
F   core         -0.009749000         1.800162000         0.212427000
F   shel          1.001281240         3.092532356         2.835815013
F   shel         -1.578260377         2.683496296         2.177066159
F   shel         -0.492122256        -0.027298830         2.753360569
F   shel          1.809970654         0.868077052         1.934187104
F   shel          2.964964543         1.857055830        -0.072842347
F   shel          1.086689361         3.034297481        -2.395313022
F   shel          1.747122785         4.014805172         0.633178043
F   shel          4.110830406         3.125966481         2.459402958
F   shel         -0.009749000         1.800162000         0.212427000
species
Al core 3.00
F  core 0.59
F  shel -1.59
buck
Al  core  F   shel  3760.000831  0.222000   0.00000 0.0 10.0
buck4
F   shel  F   shel  1127.7 0.2753 15.83 2.0 2.79 3.031 12.0
spring
F     20.77
xtol opt 6.000
ftol opt 5.000
gtol opt 8.000
switch_min rfo gnorm 0.01
maxcyc 2000

output xyz 004/004_eig