opti shel conp eigenvectors
cartesian
Al  core		-0.188894657		1.563155596		2.442656521
Al  core		2.440363096		2.461023025		1.688186575
Al  core		1.287887658		2.493276581		-0.509266653
F   core		0.905043352		3.198131519		2.607673832
F   core		-1.439868947		2.981550543		1.907253095
F   core		-0.27247046		-0.319861218		2.69151026
F   core		1.654465369		0.743003585		1.909667234
F   core		3.250138342		2.168636872		-0.120251454
F   core		1.139101714		3.070977952		-2.219497804
F   core		1.880642868		4.008718587		0.530650265
F   core		3.982889966		3.128959611		2.340305168
F   core		-0.1415974		1.943369368		0.473376505
F   shel		0.905043352		3.198131519		2.607673832
F   shel		-1.439868947		2.981550543		1.907253095
F   shel		-0.27247046		-0.319861218		2.69151026
F   shel		1.654465369		0.743003585		1.909667234
F   shel		3.250138342		2.168636872		-0.120251454
F   shel		1.139101714		3.070977952		-2.219497804
F   shel		1.880642868		4.008718587		0.530650265
F   shel		3.982889966		3.128959611		2.340305168
F   shel		-0.1415974		1.943369368		0.473376505
species
Al core 3.00
F  core 0.59
F  shel -1.59
buck
Al  core  F   shel  3760.000831  0.222000   0.00000 0.0 10.0
buck4
F   shel  F   shel  1127.7 0.2753 15.83 2.0 2.79 3.031 12.0
spring
F     20.77
xtol opt 6.000
ftol opt 5.000
gtol opt 8.000
switch_min rfo gnorm 0.01
maxcyc 2000

output xyz 004/3/sp_mod_-100/sp_mod_-100_eig
output drv 004/3/sp_mod_-100/sp_mod_-100_F_out