opti shel conp eigenvectors
cartesian
Al  core		0.323169972		-2.179326611		-1.787851861
Al  core		2.09764913		-0.440003256		-0.766656624
Al  core		-0.317105206		0.421425903		-1.780634083
F   core		3.815421288		-0.137948616		0.061113977
F   core		-0.075694974		-3.680619893		-2.146606636
F   core		1.784372638		-2.052934276		-2.355580589
F   core		1.611335495		0.773177339		-2.46631842
F   core		-1.583627422		1.768042531		-2.208327911
F   core		-0.964572486		-1.593275852		-1.097376769
F   core		-0.049238974		-1.362426509		-3.081095181
F   core		0.395038996		0.466422998		0.169648998
F   core		0.838790134		-2.29141361		-0.306307173
F   shel		3.815421288		-0.137948616		0.061113977
F   shel		-0.075694974		-3.680619893		-2.146606636
F   shel		1.784372638		-2.052934276		-2.355580589
F   shel		1.611335495		0.773177339		-2.46631842
F   shel		-1.583627422		1.768042531		-2.208327911
F   shel		-0.964572486		-1.593275852		-1.097376769
F   shel		-0.049238974		-1.362426509		-3.081095181
F   shel		0.395038996		0.466422998		0.169648998
F   shel		0.838790134		-2.29141361		-0.306307173
species
Al core 3.00
F  core 0.59
F  shel -1.59
buck
Al  core  F   shel  3760.000831  0.222000   0.00000 0.0 10.0
buck4
F   shel  F   shel  1127.7 0.2753 15.83 2.0 2.79 3.031 12.0
spring
F     20.77
xtol opt 6.000
ftol opt 5.000
gtol opt 8.000
switch_min rfo gnorm 0.01
maxcyc 2000

output xyz 006/4/sp_mod_-100/sp_mod_-100_eig
output drv 006/4/sp_mod_-100/sp_mod_-100_F_out