opti shel conp eigenvectors
cartesian
Al  core		0.280293072		-2.313169211		-1.823211961
Al  core		2.04099593		-0.530852856		-0.803370324
Al  core		-0.333373606		0.320341503		-1.799903983
F   core		3.644147688		-0.175815216		-0.022322323
F   core		-0.157718274		-3.997003193		-2.221272436
F   core		2.069360338		-1.835907376		-2.294697389
F   core		1.537670495		0.667910639		-2.28463362
F   core		-1.493275522		1.663875631		-2.178759311
F   core		-1.124791386		-1.306784252		-1.005912469
F   core		-0.110094274		-1.050874409		-3.204972081
F   core		0.492877096		0.404410298		-0.020349102
F   core		1.051638334		-2.09258021		-0.089082273
F   shel		3.644147688		-0.175815216		-0.022322323
F   shel		-0.157718274		-3.997003193		-2.221272436
F   shel		2.069360338		-1.835907376		-2.294697389
F   shel		1.537670495		0.667910639		-2.28463362
F   shel		-1.493275522		1.663875631		-2.178759311
F   shel		-1.124791386		-1.306784252		-1.005912469
F   shel		-0.110094274		-1.050874409		-3.204972081
F   shel		0.492877096		0.404410298		-0.020349102
F   shel		1.051638334		-2.09258021		-0.089082273
species
Al core 3.00
F  core 0.59
F  shel -1.59
buck
Al  core  F   shel  3760.000831  0.222000   0.00000 0.0 10.0
buck4
F   shel  F   shel  1127.7 0.2753 15.83 2.0 2.79 3.031 12.0
spring
F     20.77
xtol opt 6.000
ftol opt 5.000
gtol opt 8.000
switch_min rfo gnorm 0.01
maxcyc 2000

output xyz 006/4/sp_mod_-10/sp_mod_-10_eig
output drv 006/4/sp_mod_-10/sp_mod_-10_F_out