opti shel conp eigenvectors
cartesian
Al  core		0.372827793		-0.599017158		1.743793639
Al  core		2.332526765		-1.798837772		-0.552515797
Al  core		-0.919793981		-1.820880358		-0.965432843
F   core		3.480642607		-0.495677893		-1.08115818
F   core		-1.821312054		-0.564959988		-1.915491997
F   core		2.752168395		-3.563780294		-0.471187843
F   core		-1.205756566		-3.611339802		-1.08467222
F   core		1.906596197		-1.403648493		1.183165102
F   core		0.804218364		-1.508847282		-1.493293265
F   core		0.092747052		-1.172569163		3.440913389
F   core		0.410449671		1.135209799		1.199197736
F   core		-0.959229668		-1.462861583		0.823856614
F   shel		3.480642607		-0.495677893		-1.08115818
F   shel		-1.821312054		-0.564959988		-1.915491997
F   shel		2.752168395		-3.563780294		-0.471187843
F   shel		-1.205756566		-3.611339802		-1.08467222
F   shel		1.906596197		-1.403648493		1.183165102
F   shel		0.804218364		-1.508847282		-1.493293265
F   shel		0.092747052		-1.172569163		3.440913389
F   shel		0.410449671		1.135209799		1.199197736
F   shel		-0.959229668		-1.462861583		0.823856614
species
Al core 3.00
F  core 0.59
F  shel -1.59
buck
Al  core  F   shel  3760.000831  0.222000   0.00000 0.0 10.0
buck4
F   shel  F   shel  1127.7 0.2753 15.83 2.0 2.79 3.031 12.0
spring
F     20.77
xtol opt 6.000
ftol opt 5.000
gtol opt 8.000
switch_min rfo gnorm 0.01
maxcyc 2000

output xyz 002/3/sp_mod_-10/sp_mod_-10_eig
output drv 002/3/sp_mod_-10/sp_mod_-10_F_out