single eigenvectors
cartesian
Al  core		0.224924395		-0.716790878		1.778168717
Al  core		2.398987563		-1.671536254		-0.45187969
Al  core		-0.817656382		-1.83153714		-1.097533336
F   core		3.493434511		-0.323231993		-0.937685403
F   core		-1.780619051		-0.554058089		-1.949298021
F   core		2.844355587		-3.450627677		-0.512428392
F   core		-1.091364573		-3.622879385		-1.267336669
F   core		1.846730996		-1.426042132		1.267384
F   core		0.904530164		-1.416830882		-1.484665065
F   core		-0.048875649		-1.370732841		3.433859081
F   core		0.258993379		1.067559166		1.325008072
F   core		-0.991300869		-1.550252321		0.723022412
F   shel		3.493434511		-0.323231993		-0.937685403
F   shel		-1.780619051		-0.554058089		-1.949298021
F   shel		2.844355587		-3.450627677		-0.512428392
F   shel		-1.091364573		-3.622879385		-1.267336669
F   shel		1.846730996		-1.426042132		1.267384
F   shel		0.904530164		-1.416830882		-1.484665065
F   shel		-0.048875649		-1.370732841		3.433859081
F   shel		0.258993379		1.067559166		1.325008072
F   shel		-0.991300869		-1.550252321		0.723022412
species
Al core 3.00
F  core 0.59
F  shel -1.59
buck
Al  core  F   shel  3760.000831  0.222000   0.00000 0.0 10.0
buck4
F   shel  F   shel  1127.7 0.2753 15.83 2.0 2.79 3.031 12.0
spring
F     20.77
xtol opt 6.000
ftol opt 5.000
gtol opt 8.000
switch_min rfo gnorm 0.01
maxcyc 2000

output xyz 002/0/sp_mod_60/sp_mod_60_eig