single eigenvectors
cartesian
Al  core		0.319098395		-0.599707078		1.735966517
Al  core		2.368244163		-1.797030254		-0.50056549
Al  core		-0.870708182		-1.82159854		-1.005028936
F   core		3.590279511		-0.673445993		-1.277536003
F   core		-1.776756051		-0.385211889		-1.696651421
F   core		2.594531787		-3.601384077		-0.255257392
F   core		-1.296139573		-3.576921585		-1.336734669
F   core		2.014220796		-1.117905732		1.182863
F   core		0.856598164		-1.508174482		-1.485662465
F   core		0.224760551		-1.170873441		3.460145081
F   core		0.065012779		1.130773166		1.148873472
F   core		-0.849012669		-1.745806121		0.855894012
F   shel		3.590279511		-0.673445993		-1.277536003
F   shel		-1.776756051		-0.385211889		-1.696651421
F   shel		2.594531787		-3.601384077		-0.255257392
F   shel		-1.296139573		-3.576921585		-1.336734669
F   shel		2.014220796		-1.117905732		1.182863
F   shel		0.856598164		-1.508174482		-1.485662465
F   shel		0.224760551		-1.170873441		3.460145081
F   shel		0.065012779		1.130773166		1.148873472
F   shel		-0.849012669		-1.745806121		0.855894012
species
Al core 3.00
F  core 0.59
F  shel -1.59
buck
Al  core  F   shel  3760.000831  0.222000   0.00000 0.0 10.0
buck4
F   shel  F   shel  1127.7 0.2753 15.83 2.0 2.79 3.031 12.0
spring
F     20.77
xtol opt 6.000
ftol opt 5.000
gtol opt 8.000
switch_min rfo gnorm 0.01
maxcyc 2000

output xyz 002/1/sp_mod_-80/sp_mod_-80_eig