opti shel conp eigenvectors
cartesian
Al  core		-1.689140261		2.56381582		-1.218911691
Al  core		-0.410977755		0.033679806		-2.473933374
Al  core		-2.317484176		-0.354227518		-0.381907437
F   core		-0.744454141		3.703685836		-0.146642257
F   core		-3.002938047		3.146715193		-2.308119992
F   core		-1.37324628		-1.154538227		-1.620494561
F   core		-2.408324962		1.376597883		-0.139338838
F   core		-3.415365163		-1.465615432		0.781285453
F   core		0.807248798		-0.606460541		-3.852225504
F   core		-0.497497925		1.765384314		-2.236105831
F   core		-2.435924157		0.444001751		-2.292530028
F   core		-0.344589168		0.109456839		-0.448686008
F   shel		-0.744454141		3.703685836		-0.146642257
F   shel		-3.002938047		3.146715193		-2.308119992
F   shel		-1.37324628		-1.154538227		-1.620494561
F   shel		-2.408324962		1.376597883		-0.139338838
F   shel		-3.415365163		-1.465615432		0.781285453
F   shel		0.807248798		-0.606460541		-3.852225504
F   shel		-0.497497925		1.765384314		-2.236105831
F   shel		-2.435924157		0.444001751		-2.292530028
F   shel		-0.344589168		0.109456839		-0.448686008
species
Al core 3.00
F  core 0.59
F  shel -1.59
buck
Al  core  F   shel  3760.000831  0.222000   0.00000 0.0 10.0
buck4
F   shel  F   shel  1127.7 0.2753 15.83 2.0 2.79 3.031 12.0
spring
F     20.77
xtol opt 6.000
ftol opt 5.000
gtol opt 8.000
switch_min rfo gnorm 0.01
maxcyc 2000

output xyz 005/4/sp_mod_80/sp_mod_80_eig
output drv 005/4/sp_mod_80/sp_mod_80_F_out