opti shel conp eigenvectors
cartesian
Al  core		-1.707997461		2.55802662		-1.224326891
Al  core		-0.601019355		0.003863406		-2.417509774
Al  core		-2.123099376		-0.341076318		-0.451907037
F   core		-0.702517341		3.698139036		-0.225058257
F   core		-3.100228447		3.158411193		-2.227006392
F   core		-1.38028708		-1.675982627		-1.714822961
F   core		-2.438095362		1.448358683		0.118525562
F   core		-3.100020763		-1.307554232		0.729775053
F   core		0.481693998		-0.510260541		-3.774875904
F   core		-0.409945525		1.899827114		-2.432237831
F   core		-2.514472957		0.461272951		-2.238478028
F   core		-0.233922368		0.173775239		-0.476049208
F   shel		-0.702517341		3.698139036		-0.225058257
F   shel		-3.100228447		3.158411193		-2.227006392
F   shel		-1.38028708		-1.675982627		-1.714822961
F   shel		-2.438095362		1.448358683		0.118525562
F   shel		-3.100020763		-1.307554232		0.729775053
F   shel		0.481693998		-0.510260541		-3.774875904
F   shel		-0.409945525		1.899827114		-2.432237831
F   shel		-2.514472957		0.461272951		-2.238478028
F   shel		-0.233922368		0.173775239		-0.476049208
species
Al core 3.00
F  core 0.59
F  shel -1.59
buck
Al  core  F   shel  3760.000831  0.222000   0.00000 0.0 10.0
buck4
F   shel  F   shel  1127.7 0.2753 15.83 2.0 2.79 3.031 12.0
spring
F     20.77
xtol opt 6.000
ftol opt 5.000
gtol opt 8.000
switch_min rfo gnorm 0.01
maxcyc 2000

output xyz 005/0/sp_mod_40/sp_mod_40_eig
output drv 005/0/sp_mod_40/sp_mod_40_F_out