opti shel conp eigenvectors
cartesian
Al  core		-0.366314338		1.04388446		-1.819675136
Al  core		-0.448531014		1.077341253		1.281606936
Al  core		-3.018020719		0.449755489		-1.858645142
F   core		-3.523321261		0.275941608		-3.598987408
F   core		-1.369632957		-0.559750301		-1.821684745
F   core		-1.952948387		2.064499603		-1.913024583
F   core		-2.043452125		0.758258439		0.454914124
F   core		0.591415327		1.293081243		-0.295212411
F   core		-0.272483475		2.723676497		2.026362747
F   core		0.346751415		-0.382146158		2.015155245
F   core		-4.278381592		0.21888337		-0.580946065
F   core		0.746574627		1.248458437		-3.233944729
F   shel		-3.523321261		0.275941608		-3.598987408
F   shel		-1.369632957		-0.559750301		-1.821684745
F   shel		-1.952948387		2.064499603		-1.913024583
F   shel		-2.043452125		0.758258439		0.454914124
F   shel		0.591415327		1.293081243		-0.295212411
F   shel		-0.272483475		2.723676497		2.026362747
F   shel		0.346751415		-0.382146158		2.015155245
F   shel		-4.278381592		0.21888337		-0.580946065
F   shel		0.746574627		1.248458437		-3.233944729
species
Al core 3.00
F  core 0.59
F  shel -1.59
buck
Al  core  F   shel  3760.000831  0.222000   0.00000 0.0 10.0
buck4
F   shel  F   shel  1127.7 0.2753 15.83 2.0 2.79 3.031 12.0
spring
F     20.77
xtol opt 6.000
ftol opt 5.000
gtol opt 8.000
switch_min rfo gnorm 0.01
maxcyc 2000

output xyz 003/1/sp_mod_10/sp_mod_10_eig
output drv 003/1/sp_mod_10/sp_mod_10_F_out