opti shel conp eigenvectors
cartesian
Al  core		-0.355340238		1.03776536		-1.683367036
Al  core		-0.202568614		1.120661153		0.931948036
Al  core		-3.115410319		0.437445589		-1.883531442
F   core		-3.571496961		0.304136908		-3.704969008
F   core		-1.124256957		-0.326985301		-1.829671045
F   core		-1.617883287		1.957068303		-1.873233583
F   core		-1.953389725		0.734376539		0.517682324
F   core		0.196654327		1.186006343		-0.165719211
F   core		-0.333393675		2.570563697		1.940637647
F   core		0.268864115		-0.216140858		1.993785445
F   core		-4.364956492		0.19410937		-0.482850065
F   core		0.554258727		1.208107037		-3.059138629
F   shel		-3.571496961		0.304136908		-3.704969008
F   shel		-1.124256957		-0.326985301		-1.829671045
F   shel		-1.617883287		1.957068303		-1.873233583
F   shel		-1.953389725		0.734376539		0.517682324
F   shel		0.196654327		1.186006343		-0.165719211
F   shel		-0.333393675		2.570563697		1.940637647
F   shel		0.268864115		-0.216140858		1.993785445
F   shel		-4.364956492		0.19410937		-0.482850065
F   shel		0.554258727		1.208107037		-3.059138629
species
Al core 3.00
F  core 0.59
F  shel -1.59
buck
Al  core  F   shel  3760.000831  0.222000   0.00000 0.0 10.0
buck4
F   shel  F   shel  1127.7 0.2753 15.83 2.0 2.79 3.031 12.0
spring
F     20.77
xtol opt 6.000
ftol opt 5.000
gtol opt 8.000
switch_min rfo gnorm 0.01
maxcyc 2000

output xyz 003/4/sp_mod_-90/sp_mod_-90_eig
output drv 003/4/sp_mod_-90/sp_mod_-90_F_out