opti conp conj prop eigenvectors
cartesian
Al  core            1.282632020         0.048942952         2.443835426
Al  core            1.276784000         1.189243000        -0.083083000
Al  core           -0.319098281         0.835788505        -2.322248943
F   core            -1.670558036        -0.369894386        -2.218735804
F   core             2.063175681        -0.352116003         0.755930606
F   core             0.049578797         1.820657808        -3.797753391
F   core            -0.359047051         1.932598964        -0.768373364
F   core             2.587877375         2.420945651        -0.320352906
F   core             1.262784288         0.041070094        -1.625692347
F   core             0.441333643         1.539402601         1.613251945
F   core             2.543910355         0.595333156         3.624359261
F   core             0.020559524        -1.200655199         2.813307748
F   shel            -1.670558036        -0.369894386        -2.218735804
F   shel             2.063175681        -0.352116003         0.755930606
F   shel             0.049578797         1.820657808        -3.797753391
F   shel            -0.359047051         1.932598964        -0.768373364
F   shel             2.587877375         2.420945651        -0.320352906
F   shel             1.262784288         0.041070094        -1.625692347
F   shel             0.441333643         1.539402601         1.613251945
F   shel             2.543910355         0.595333156         3.624359261
F   shel             0.020559524        -1.200655199         2.813307748
species
Al core 3.00
F  core 0.59
F  shel -1.59
buck
Al  core  F   shel  3760.000831  0.222000   0.00000 0.0 10.0
buck4
F   shel  F   shel  1127.7 0.2753 15.83 2.0 2.79 3.031 12.0
spring
F     20.77
xtol opt 6.000
ftol opt 5.000
gtol opt 8.000
switch_min rfo gnorm 0.01
maxcyc 2000

output xyz 001/001_eig