opti shel conp eigenvectors
cartesian
Al  core		-0.030078657		1.596860596		2.163566921
Al  core		2.573172296		2.563226025		1.774050975
Al  core		1.406165858		2.620553381		-0.638708253
F   core		1.041348352		3.056137119		2.842518632
F   core		-1.538194947		2.647890143		2.183290895
F   core		-0.45298846		-0.063243618		2.75973626
F   core		1.849530369		0.831444185		1.941022234
F   core		3.005200342		1.820098472		-0.065780454
F   core		1.127724714		2.997961552		-2.388586004
F   core		1.787897868		3.978217187		0.640043065
F   core		4.150981966		3.088618211		2.466701168
F   core		0.0304196		1.764119968		0.218929505
F   shel		1.041348352		3.056137119		2.842518632
F   shel		-1.538194947		2.647890143		2.183290895
F   shel		-0.45298846		-0.063243618		2.75973626
F   shel		1.849530369		0.831444185		1.941022234
F   shel		3.005200342		1.820098472		-0.065780454
F   shel		1.127724714		2.997961552		-2.388586004
F   shel		1.787897868		3.978217187		0.640043065
F   shel		4.150981966		3.088618211		2.466701168
F   shel		0.0304196		1.764119968		0.218929505
species
Al core 3.00
F  core 0.59
F  shel -1.59
buck
Al  core  F   shel  3760.000831  0.222000   0.00000 0.0 10.0
buck4
F   shel  F   shel  1127.7 0.2753 15.83 2.0 2.79 3.031 12.0
spring
F     20.77
xtol opt 6.000
ftol opt 5.000
gtol opt 8.000
switch_min rfo gnorm 0.01
maxcyc 2000

output xyz 004/0/sp_mod_20/sp_mod_20_eig
output drv 004/0/sp_mod_20/sp_mod_20_F_out