single eigenvectors
cartesian
Al  core		-1.729717989		2.553445085		-1.198310006
Al  core		-0.49132277		-0.049910596		-2.364715756
Al  core		-2.197610186		-0.279970712		-0.545683849
F   core		-0.76618148		3.683942511		-0.152200173
F   core		-3.01425457		3.176892466		-2.318875119
F   core		-1.330824688		-1.665546637		-1.771654354
F   core		-2.56102668		1.48878571		0.123637985
F   core		-3.21932753		-1.247980546		0.583315964
F   core		0.64692169		-0.56016206		-3.682332
F   core		-0.393244693		1.837344922		-2.318957522
F   core		-2.462648957		0.472793951		-2.295673628
F   core		-0.313254163		0.15663878		-0.389653388
F   shel		-0.76618148		3.683942511		-0.152200173
F   shel		-3.01425457		3.176892466		-2.318875119
F   shel		-1.330824688		-1.665546637		-1.771654354
F   shel		-2.56102668		1.48878571		0.123637985
F   shel		-3.21932753		-1.247980546		0.583315964
F   shel		0.64692169		-0.56016206		-3.682332
F   shel		-0.393244693		1.837344922		-2.318957522
F   shel		-2.462648957		0.472793951		-2.295673628
F   shel		-0.313254163		0.15663878		-0.389653388
species
Al core 3.00
F  core 0.59
F  shel -1.59
buck
Al  core  F   shel  3760.000831  0.222000   0.00000 0.0 10.0
buck4
F   shel  F   shel  1127.7 0.2753 15.83 2.0 2.79 3.031 12.0
spring
F     20.77
xtol opt 6.000
ftol opt 5.000
gtol opt 8.000
switch_min rfo gnorm 0.01
maxcyc 2000

output xyz 005/3/sp_mod_-20/sp_mod_-20_eig