opti shel conp eigenvectors
cartesian
Al  core		-0.078091257		1.646501196		2.155473721
Al  core		2.530859896		2.618815425		1.772686375
Al  core		1.359999858		2.657387781		-0.639671653
F   core		0.993227952		3.122699319		2.810746432
F   core		-1.578305947		2.688440743		2.256944895
F   core		-0.50966226		-0.068452818		2.61177866
F   core		1.824652569		0.878399785		1.987875834
F   core		2.949293742		1.826669672		-0.054729454
F   core		1.074048114		2.995737552		-2.394051004
F   core		1.779306268		4.024020587		0.612429665
F   core		4.116322166		3.150500211		2.452431768
F   core		-0.0163462		1.822561968		0.234180705
F   shel		0.993227952		3.122699319		2.810746432
F   shel		-1.578305947		2.688440743		2.256944895
F   shel		-0.50966226		-0.068452818		2.61177866
F   shel		1.824652569		0.878399785		1.987875834
F   shel		2.949293742		1.826669672		-0.054729454
F   shel		1.074048114		2.995737552		-2.394051004
F   shel		1.779306268		4.024020587		0.612429665
F   shel		4.116322166		3.150500211		2.452431768
F   shel		-0.0163462		1.822561968		0.234180705
species
Al core 3.00
F  core 0.59
F  shel -1.59
buck
Al  core  F   shel  3760.000831  0.222000   0.00000 0.0 10.0
buck4
F   shel  F   shel  1127.7 0.2753 15.83 2.0 2.79 3.031 12.0
spring
F     20.77
xtol opt 6.000
ftol opt 5.000
gtol opt 8.000
switch_min rfo gnorm 0.01
maxcyc 2000

output xyz 004/1/sp_mod_20/sp_mod_20_eig
output drv 004/1/sp_mod_20/sp_mod_20_F_out