single eigenvectors
cartesian
Al  core		1.181648862		-0.031510284		2.443638237
Al  core		1.2931192		1.1777602		-0.0524278
Al  core		-0.236023185		0.928831764		-2.355659473
F   core		-1.631415804		-0.263232544		-2.313021277
F   core		2.017565792		-0.398934754		0.768944313
F   core		0.184090984		1.924020054		-3.792725194
F   core		-0.308700626		1.976080081		-0.772487095
F   core		2.636584153		2.386707709		-0.228949844
F   core		1.294359823		0.067006728		-1.626606777
F   core		0.414503671		1.510137023		1.623064302
F   core		2.43788953		0.471956219		3.672783809
F   core		-0.103379641		-1.247706859		2.748456386
F   shel		-1.631415804		-0.263232544		-2.313021277
F   shel		2.017565792		-0.398934754		0.768944313
F   shel		0.184090984		1.924020054		-3.792725194
F   shel		-0.308700626		1.976080081		-0.772487095
F   shel		2.636584153		2.386707709		-0.228949844
F   shel		1.294359823		0.067006728		-1.626606777
F   shel		0.414503671		1.510137023		1.623064302
F   shel		2.43788953		0.471956219		3.672783809
F   shel		-0.103379641		-1.247706859		2.748456386
species
Al core 3.00
F  core 0.59
F  shel -1.59
buck
Al  core  F   shel  3760.000831  0.222000   0.00000 0.0 10.0
buck4
F   shel  F   shel  1127.7 0.2753 15.83 2.0 2.79 3.031 12.0
spring
F     20.77
xtol opt 6.000
ftol opt 5.000
gtol opt 8.000
switch_min rfo gnorm 0.01
maxcyc 2000

output xyz 001/0/sp_mod_40/sp_mod_40_eig