opti shel conp eigenvectors
cartesian
Al  core		-1.712140261		2.55490702		-1.241522891
Al  core		-0.651740955		-0.032683394		-2.220925374
Al  core		-2.084501776		-0.324200318		-0.648744237
F   core		-0.770410941		3.667759436		-0.176959057
F   core		-3.031472447		3.205868793		-2.323155192
F   core		-1.38131668		-2.195459827		-1.820859361
F   core		-2.643644962		1.522724283		0.245841962
F   core		-3.079200363		-1.140549832		0.423519053
F   core		0.435427998		-0.425446141		-3.433113504
F   core		-0.173249925		2.025363514		-2.464944231
F   core		-2.473860157		0.504742551		-2.315840428
F   core		-0.260683568		0.208141639		-0.353922808
F   shel		-0.770410941		3.667759436		-0.176959057
F   shel		-3.031472447		3.205868793		-2.323155192
F   shel		-1.38131668		-2.195459827		-1.820859361
F   shel		-2.643644962		1.522724283		0.245841962
F   shel		-3.079200363		-1.140549832		0.423519053
F   shel		0.435427998		-0.425446141		-3.433113504
F   shel		-0.173249925		2.025363514		-2.464944231
F   shel		-2.473860157		0.504742551		-2.315840428
F   shel		-0.260683568		0.208141639		-0.353922808
species
Al core 3.00
F  core 0.59
F  shel -1.59
buck
Al  core  F   shel  3760.000831  0.222000   0.00000 0.0 10.0
buck4
F   shel  F   shel  1127.7 0.2753 15.83 2.0 2.79 3.031 12.0
spring
F     20.77
xtol opt 6.000
ftol opt 5.000
gtol opt 8.000
switch_min rfo gnorm 0.01
maxcyc 2000

output xyz 005/4/sp_mod_-80/sp_mod_-80_eig
output drv 005/4/sp_mod_-80/sp_mod_-80_F_out