opti shel conp eigenvectors
cartesian
Al  core		1.35876838		-0.039851683		2.403589273
Al  core		1.2141875		1.2622483		-0.0499936
Al  core		-0.242961162		0.74698925		-2.362495573
F   core		-1.716764572		-0.316006153		-2.194315306
F   core		2.069243553		-0.339040153		0.675710552
F   core		0.006201839		1.87125509		-3.774817933
F   core		-0.38730501		1.913423453		-0.842380149
F   core		2.609844957		2.395325012		-0.331968143
F   core		1.316214039		0.030879905		-1.564990254
F   core		0.460441717		1.496971129		1.680166839
F   core		2.500533669		0.645928876		3.647288837
F   core		-0.025652025		-1.146757052		2.837734371
F   shel		-1.716764572		-0.316006153		-2.194315306
F   shel		2.069243553		-0.339040153		0.675710552
F   shel		0.006201839		1.87125509		-3.774817933
F   shel		-0.38730501		1.913423453		-0.842380149
F   shel		2.609844957		2.395325012		-0.331968143
F   shel		1.316214039		0.030879905		-1.564990254
F   shel		0.460441717		1.496971129		1.680166839
F   shel		2.500533669		0.645928876		3.647288837
F   shel		-0.025652025		-1.146757052		2.837734371
species
Al core 3.00
F  core 0.59
F  shel -1.59
buck
Al  core  F   shel  3760.000831  0.222000   0.00000 0.0 10.0
buck4
F   shel  F   shel  1127.7 0.2753 15.83 2.0 2.79 3.031 12.0
spring
F     20.77
xtol opt 6.000
ftol opt 5.000
gtol opt 8.000
switch_min rfo gnorm 0.01
maxcyc 2000

output xyz 001/3/sp_mod_-30/sp_mod_-30_eig
output drv 001/3/sp_mod_-30/sp_mod_-30_F_out