single eigenvectors
cartesian
Al  core		-1.584328989		2.583027085		-1.357846006
Al  core		-0.69150577		0.202133404		-2.278283756
Al  core		-2.214524186		-0.576186712		-0.393893849
F   core		-0.72243648		3.692843511		-0.200202173
F   core		-3.02900757		3.173890466		-2.302687119
F   core		-1.563108688		-1.712808637		-1.516767354
F   core		-2.38581768		1.29316271		-0.228294015
F   core		-3.35910453		-1.523490546		0.678746964
F   core		0.51900469		-0.33911806		-3.48402
F   core		-0.103890693		2.127489922		-2.476794522
F   core		-2.423864957		0.480684951		-2.338231628
F   core		-0.260165163		0.16744078		-0.447908388
F   shel		-0.72243648		3.692843511		-0.200202173
F   shel		-3.02900757		3.173890466		-2.302687119
F   shel		-1.563108688		-1.712808637		-1.516767354
F   shel		-2.38581768		1.29316271		-0.228294015
F   shel		-3.35910453		-1.523490546		0.678746964
F   shel		0.51900469		-0.33911806		-3.48402
F   shel		-0.103890693		2.127489922		-2.476794522
F   shel		-2.423864957		0.480684951		-2.338231628
F   shel		-0.260165163		0.16744078		-0.447908388
species
Al core 3.00
F  core 0.59
F  shel -1.59
buck
Al  core  F   shel  3760.000831  0.222000   0.00000 0.0 10.0
buck4
F   shel  F   shel  1127.7 0.2753 15.83 2.0 2.79 3.031 12.0
spring
F     20.77
xtol opt 6.000
ftol opt 5.000
gtol opt 8.000
switch_min rfo gnorm 0.01
maxcyc 2000

output xyz 005/3/sp_mod_80/sp_mod_80_eig