single eigenvectors
cartesian
Al  core		1.235167262		0.104303316		2.468926637
Al  core		1.276784		1.189243		-0.083083
Al  core		-0.271632385		0.780428964		-2.347339473
F   core		-1.455184604		-0.621082144		-2.332591277
F   core		1.847002192		-0.458344754		0.722933113
F   core		-0.117177016		2.015152454		-3.709597994
F   core		-0.466581026		1.734720081		-0.676791095
F   core		2.587876553		2.420946509		-0.320355444
F   core		1.427017423		0.172812728		-1.747245177
F   core		0.600807671		1.711765023		1.676224302
F   core		2.71067553		0.400846219		3.536205009
F   core		-0.194814041		-0.949464859		2.927156786
F   shel		-1.455184604		-0.621082144		-2.332591277
F   shel		1.847002192		-0.458344754		0.722933113
F   shel		-0.117177016		2.015152454		-3.709597994
F   shel		-0.466581026		1.734720081		-0.676791095
F   shel		2.587876553		2.420946509		-0.320355444
F   shel		1.427017423		0.172812728		-1.747245177
F   shel		0.600807671		1.711765023		1.676224302
F   shel		2.71067553		0.400846219		3.536205009
F   shel		-0.194814041		-0.949464859		2.927156786
species
Al core 3.00
F  core 0.59
F  shel -1.59
buck
Al  core  F   shel  3760.000831  0.222000   0.00000 0.0 10.0
buck4
F   shel  F   shel  1127.7 0.2753 15.83 2.0 2.79 3.031 12.0
spring
F     20.77
xtol opt 6.000
ftol opt 5.000
gtol opt 8.000
switch_min rfo gnorm 0.01
maxcyc 2000

output xyz 001/1/sp_mod_-80/sp_mod_-80_eig