opti shel conp eigenvectors
cartesian
Al  core		0.465630193		-0.597825158		1.757313239
Al  core		2.260620365		-1.839213372		-0.684764997
Al  core		-1.027429981		-1.782810758		-0.859339643
F   core		3.498578207		-0.493066293		-0.95467418
F   core		-1.767980854		-0.566656388		-2.031593597
F   core		2.813492395		-3.569534694		-0.388480643
F   core		-1.123552566		-3.603742202		-1.14647022
F   core		1.946100997		-1.358324893		1.072539902
F   core		0.693851164		-1.510264882		-1.509371665
F   core		0.028088252		-1.173399563		3.431493789
F   core		0.427106071		1.135423799		1.201624136
F   core		-0.951796868		-1.507582383		0.941319814
F   shel		3.498578207		-0.493066293		-0.95467418
F   shel		-1.767980854		-0.566656388		-2.031593597
F   shel		2.813492395		-3.569534694		-0.388480643
F   shel		-1.123552566		-3.603742202		-1.14647022
F   shel		1.946100997		-1.358324893		1.072539902
F   shel		0.693851164		-1.510264882		-1.509371665
F   shel		0.028088252		-1.173399563		3.431493789
F   shel		0.427106071		1.135423799		1.201624136
F   shel		-0.951796868		-1.507582383		0.941319814
species
Al core 3.00
F  core 0.59
F  shel -1.59
buck
Al  core  F   shel  3760.000831  0.222000   0.00000 0.0 10.0
buck4
F   shel  F   shel  1127.7 0.2753 15.83 2.0 2.79 3.031 12.0
spring
F     20.77
xtol opt 6.000
ftol opt 5.000
gtol opt 8.000
switch_min rfo gnorm 0.01
maxcyc 2000

output xyz 002/3/sp_mod_-50/sp_mod_-50_eig
output drv 002/3/sp_mod_-50/sp_mod_-50_F_out