opti shel conp eigenvectors
cartesian
Al  core		1.28263168		0.048945317		2.443836073
Al  core		1.276784		1.189243		-0.083083
Al  core		-0.319097562		0.83578625		-2.322248773
F   core		-1.670556172		-0.369898453		-2.218741606
F   core		2.063174253		-0.352115953		0.755931452
F   core		0.049582139		1.82066129		-3.797749333
F   core		-0.35904981		1.932593753		-0.768371049
F   core		2.587876557		2.420946512		-0.320355443
F   core		1.262785239		0.041069405		-1.625692254
F   core		0.441337117		1.539406429		1.613253039
F   core		2.543913969		0.595335076		3.624357437
F   core		0.020556675		-1.200649352		2.813308071
F   shel		-1.670556172		-0.369898453		-2.218741606
F   shel		2.063174253		-0.352115953		0.755931452
F   shel		0.049582139		1.82066129		-3.797749333
F   shel		-0.35904981		1.932593753		-0.768371049
F   shel		2.587876557		2.420946512		-0.320355443
F   shel		1.262785239		0.041069405		-1.625692254
F   shel		0.441337117		1.539406429		1.613253039
F   shel		2.543913969		0.595335076		3.624357437
F   shel		0.020556675		-1.200649352		2.813308071
species
Al core 3.00
F  core 0.59
F  shel -1.59
buck
Al  core  F   shel  3760.000831  0.222000   0.00000 0.0 10.0
buck4
F   shel  F   shel  1127.7 0.2753 15.83 2.0 2.79 3.031 12.0
spring
F     20.77
xtol opt 6.000
ftol opt 5.000
gtol opt 8.000
switch_min rfo gnorm 0.01
maxcyc 2000

output xyz 001/2/sp_mod_0/sp_mod_0_eig
output drv 001/2/sp_mod_0/sp_mod_0_F_out