opti shel conp eigenvectors
cartesian
Al  core		1.27936968		0.008170117		2.527628473
Al  core		1.3574004		1.1496406		0.156799
Al  core		-0.263118762		0.85066465		-2.249177573
F   core		-1.750095772		-0.440492853		-2.213456806
F   core		2.041279053		-0.294073153		0.684332652
F   core		0.069032939		1.87276449		-3.875909733
F   core		-0.42855141		1.945912953		-0.831354649
F   core		2.586442157		2.421651312		-0.324623443
F   core		1.232487239		0.008666205		-1.709399454
F   core		0.458645517		1.551726829		1.520930639
F   core		2.477170769		0.566463876		3.561795837
F   core		0.094324275		-1.127219352		2.790848471
F   shel		-1.750095772		-0.440492853		-2.213456806
F   shel		2.041279053		-0.294073153		0.684332652
F   shel		0.069032939		1.87276449		-3.875909733
F   shel		-0.42855141		1.945912953		-0.831354649
F   shel		2.586442157		2.421651312		-0.324623443
F   shel		1.232487239		0.008666205		-1.709399454
F   shel		0.458645517		1.551726829		1.520930639
F   shel		2.477170769		0.566463876		3.561795837
F   shel		0.094324275		-1.127219352		2.790848471
species
Al core 3.00
F  core 0.59
F  shel -1.59
buck
Al  core  F   shel  3760.000831  0.222000   0.00000 0.0 10.0
buck4
F   shel  F   shel  1127.7 0.2753 15.83 2.0 2.79 3.031 12.0
spring
F     20.77
xtol opt 6.000
ftol opt 5.000
gtol opt 8.000
switch_min rfo gnorm 0.01
maxcyc 2000

output xyz 001/5/sp_mod_40/sp_mod_40_eig
output drv 001/5/sp_mod_40/sp_mod_40_F_out