opti shel conp eigenvectors
cartesian
Al  core		1.28284258		0.049979417		2.441953573
Al  core		1.3103372		1.2207646		-0.0891553
Al  core		-0.317718162		0.83624615		-2.320654273
F   core		-1.669272172		-0.369923053		-2.216258806
F   core		2.120291253		-0.466351753		0.807687452
F   core		0.051188939		1.82204189		-3.797755933
F   core		-0.47836881		1.988394353		-0.808870149
F   core		2.666521257		2.494829012		-0.334588043
F   core		1.266959739		-0.047158795		-1.731471654
F   core		0.374960617		1.569199129		1.730289339
F   core		2.545340769		0.596804176		3.623815037
F   core		0.020120175		-1.199828852		2.810671971
F   shel		-1.669272172		-0.369923053		-2.216258806
F   shel		2.120291253		-0.466351753		0.807687452
F   shel		0.051188939		1.82204189		-3.797755933
F   shel		-0.47836881		1.988394353		-0.808870149
F   shel		2.666521257		2.494829012		-0.334588043
F   shel		1.266959739		-0.047158795		-1.731471654
F   shel		0.374960617		1.569199129		1.730289339
F   shel		2.545340769		0.596804176		3.623815037
F   shel		0.020120175		-1.199828852		2.810671971
species
Al core 3.00
F  core 0.59
F  shel -1.59
buck
Al  core  F   shel  3760.000831  0.222000   0.00000 0.0 10.0
buck4
F   shel  F   shel  1127.7 0.2753 15.83 2.0 2.79 3.031 12.0
spring
F     20.77
xtol opt 6.000
ftol opt 5.000
gtol opt 8.000
switch_min rfo gnorm 0.01
maxcyc 2000

output xyz 001/4/sp_mod_30/sp_mod_30_eig
output drv 001/4/sp_mod_30/sp_mod_30_F_out