single eigenvectors
cartesian
Al  core		-1.722811589		2.528929685		-1.256065206
Al  core		-0.51573837		-3.4596e-05		-2.340271356
Al  core		-2.192192786		-0.341134512		-0.500683249
F   core		-0.73215348		3.593279711		-0.155904173
F   core		-3.03876857		3.139460066		-2.342118119
F   core		-1.387810288		-1.672654637		-1.729837354
F   core		-2.53460528		1.44543871		0.056981385
F   core		-3.29064933		-1.213924746		0.646784164
F   core		0.64381669		-0.41339826		-3.6705394
F   core		-0.331905693		1.893611122		-2.360059922
F   core		-2.439727557		0.482105151		-2.288931428
F   core		-0.287628563		0.13145578		-0.392697588
F   shel		-0.73215348		3.593279711		-0.155904173
F   shel		-3.03876857		3.139460066		-2.342118119
F   shel		-1.387810288		-1.672654637		-1.729837354
F   shel		-2.53460528		1.44543871		0.056981385
F   shel		-3.29064933		-1.213924746		0.646784164
F   shel		0.64381669		-0.41339826		-3.6705394
F   shel		-0.331905693		1.893611122		-2.360059922
F   shel		-2.439727557		0.482105151		-2.288931428
F   shel		-0.287628563		0.13145578		-0.392697588
species
Al core 3.00
F  core 0.59
F  shel -1.59
buck
Al  core  F   shel  3760.000831  0.222000   0.00000 0.0 10.0
buck4
F   shel  F   shel  1127.7 0.2753 15.83 2.0 2.79 3.031 12.0
spring
F     20.77
xtol opt 6.000
ftol opt 5.000
gtol opt 8.000
switch_min rfo gnorm 0.01
maxcyc 2000

output xyz 005/2/sp_mod_-20/sp_mod_-20_eig