opti shel conp eigenvectors
cartesian
Al  core		0.357259393		-0.599217158		1.741525539
Al  core		2.346068165		-1.786672272		-0.524175497
Al  core		-0.898429181		-1.832597558		-0.988687943
F   core		3.447628507		-0.452051993		-1.07158998
F   core		-1.849117054		-0.609366888		-1.933920397
F   core		2.772413795		-3.552581094		-0.551016443
F   core		-1.208849566		-3.622318602		-1.00234472
F   core		1.867344797		-1.489247793		1.217811002
F   core		0.825613164		-1.508572482		-1.490176465
F   core		0.079949552		-1.172733563		3.439049089
F   core		0.491603771		1.136252099		1.211020536
F   core		-0.989106668		-1.378150183		0.779140014
F   shel		3.447628507		-0.452051993		-1.07158998
F   shel		-1.849117054		-0.609366888		-1.933920397
F   shel		2.772413795		-3.552581094		-0.551016443
F   shel		-1.208849566		-3.622318602		-1.00234472
F   shel		1.867344797		-1.489247793		1.217811002
F   shel		0.825613164		-1.508572482		-1.490176465
F   shel		0.079949552		-1.172733563		3.439049089
F   shel		0.491603771		1.136252099		1.211020536
F   shel		-0.989106668		-1.378150183		0.779140014
species
Al core 3.00
F  core 0.59
F  shel -1.59
buck
Al  core  F   shel  3760.000831  0.222000   0.00000 0.0 10.0
buck4
F   shel  F   shel  1127.7 0.2753 15.83 2.0 2.79 3.031 12.0
spring
F     20.77
xtol opt 6.000
ftol opt 5.000
gtol opt 8.000
switch_min rfo gnorm 0.01
maxcyc 2000

output xyz 002/1/sp_mod_20/sp_mod_20_eig
output drv 002/1/sp_mod_20/sp_mod_20_F_out