opti shel conp eigenvectors
cartesian
Al  core		0.410914193		-0.987476158		1.353940739
Al  core		2.544134365		-1.876045872		-0.646481497
Al  core		-1.039974981		-1.922075758		-1.168620143
F   core		3.384929707		-0.593519793		-1.06429018
F   core		-1.758623854		-0.659576888		-1.813612597
F   core		2.694445395		-3.389549694		-0.490122643
F   core		-1.190533566		-3.439444202		-1.05609372
F   core		1.678438997		-1.284171393		1.418228402
F   core		0.836260164		-1.494084882		-1.521091665
F   core		0.060365752		-1.271684563		3.785259289
F   core		0.415312571		1.475238299		1.106649136
F   core		-0.814403868		-1.316186383		1.055066814
F   shel		3.384929707		-0.593519793		-1.06429018
F   shel		-1.758623854		-0.659576888		-1.813612597
F   shel		2.694445395		-3.389549694		-0.490122643
F   shel		-1.190533566		-3.439444202		-1.05609372
F   shel		1.678438997		-1.284171393		1.418228402
F   shel		0.836260164		-1.494084882		-1.521091665
F   shel		0.060365752		-1.271684563		3.785259289
F   shel		0.415312571		1.475238299		1.106649136
F   shel		-0.814403868		-1.316186383		1.055066814
species
Al core 3.00
F  core 0.59
F  shel -1.59
buck
Al  core  F   shel  3760.000831  0.222000   0.00000 0.0 10.0
buck4
F   shel  F   shel  1127.7 0.2753 15.83 2.0 2.79 3.031 12.0
spring
F     20.77
xtol opt 6.000
ftol opt 5.000
gtol opt 8.000
switch_min rfo gnorm 0.01
maxcyc 2000

output xyz 002/5/sp_mod_-100/sp_mod_-100_eig
output drv 002/5/sp_mod_-100/sp_mod_-100_F_out