opti shel conp eigenvectors
cartesian
Al  core		-1.715015261		2.55379342		-1.244349291
Al  core		-0.681836355		-0.040978794		-2.189299374
Al  core		-2.055378976		-0.320446918		-0.682098837
F   core		-0.773655541		3.663268636		-0.180748657
F   core		-3.035039247		3.213262993		-2.325034592
F   core		-1.38232548		-2.325575027		-1.845904961
F   core		-2.673059962		1.540990083		0.293989562
F   core		-3.037179763		-1.099916632		0.378798253
F   core		0.388950398		-0.402819341		-3.380724504
F   core		-0.132718925		2.057860914		-2.493549031
F   core		-2.478602157		0.512335151		-2.318754228
F   core		-0.250195368		0.220477239		-0.342077408
F   shel		-0.773655541		3.663268636		-0.180748657
F   shel		-3.035039247		3.213262993		-2.325034592
F   shel		-1.38232548		-2.325575027		-1.845904961
F   shel		-2.673059962		1.540990083		0.293989562
F   shel		-3.037179763		-1.099916632		0.378798253
F   shel		0.388950398		-0.402819341		-3.380724504
F   shel		-0.132718925		2.057860914		-2.493549031
F   shel		-2.478602157		0.512335151		-2.318754228
F   shel		-0.250195368		0.220477239		-0.342077408
species
Al core 3.00
F  core 0.59
F  shel -1.59
buck
Al  core  F   shel  3760.000831  0.222000   0.00000 0.0 10.0
buck4
F   shel  F   shel  1127.7 0.2753 15.83 2.0 2.79 3.031 12.0
spring
F     20.77
xtol opt 6.000
ftol opt 5.000
gtol opt 8.000
switch_min rfo gnorm 0.01
maxcyc 2000

output xyz 005/4/sp_mod_-100/sp_mod_-100_eig
output drv 005/4/sp_mod_-100/sp_mod_-100_F_out