single eigenvectors
cartesian
Al  core		1.270765862		0.062785116		2.450108837
Al  core		1.276784		1.189243		-0.083083
Al  core		-0.307230985		0.821947164		-2.328521673
F   core		-1.616713004		-0.432694144		-2.247204677
F   core		2.009131192		-0.378673154		0.747681913
F   core		0.007892984		1.869284654		-3.775711394
F   core		-0.385932626		1.883125281		-0.745476095
F   core		2.587876553		2.420946509		-0.320355444
F   core		1.303843423		0.074005328		-1.656080577
F   core		0.481204871		1.582496223		1.628995902
F   core		2.58560493		0.546713419		3.602319009
F   core		-0.033285641		-1.137852859		2.841770786
F   shel		-1.616713004		-0.432694144		-2.247204677
F   shel		2.009131192		-0.378673154		0.747681913
F   shel		0.007892984		1.869284654		-3.775711394
F   shel		-0.385932626		1.883125281		-0.745476095
F   shel		2.587876553		2.420946509		-0.320355444
F   shel		1.303843423		0.074005328		-1.656080577
F   shel		0.481204871		1.582496223		1.628995902
F   shel		2.58560493		0.546713419		3.602319009
F   shel		-0.033285641		-1.137852859		2.841770786
species
Al core 3.00
F  core 0.59
F  shel -1.59
buck
Al  core  F   shel  3760.000831  0.222000   0.00000 0.0 10.0
buck4
F   shel  F   shel  1127.7 0.2753 15.83 2.0 2.79 3.031 12.0
spring
F     20.77
xtol opt 6.000
ftol opt 5.000
gtol opt 8.000
switch_min rfo gnorm 0.01
maxcyc 2000

output xyz 001/1/sp_mod_-20/sp_mod_-20_eig