opti conp conj prop eigenvectors
cartesian
Al  core        -0.364025238         1.033292360        -1.819473136
Al  core        -0.448802745         1.074115286         1.281642477
Al  core        -3.019907074         0.458539250        -1.859637777
F   core         -3.531171612         0.314835874        -3.600714112
F   core         -1.377183602        -0.562142209        -1.842682996
F   core         -1.945217676         2.066196330        -1.892818298
F   core         -2.034937978         0.715566174         0.455209242
F   core          0.595959000         1.269851000        -0.294469000
F   core         -0.302958265         2.738877667         1.990980621
F   core          0.365662228        -0.354932327         2.049975675
F   core         -4.277109619         0.211200791        -0.582018632
F   core          0.747433190         1.246527054        -3.233561119
F   shel         -3.531171612         0.314835874        -3.600714112
F   shel         -1.377183602        -0.562142209        -1.842682996
F   shel         -1.945217676         2.066196330        -1.892818298
F   shel         -2.034937978         0.715566174         0.455209242
F   shel          0.595959000         1.269851000        -0.294469000
F   shel         -0.302958265         2.738877667         1.990980621
F   shel          0.365662228        -0.354932327         2.049975675
F   shel         -4.277109619         0.211200791        -0.582018632
F   shel          0.747433190         1.246527054        -3.233561119
species
Al core 3.00
F  core 0.59
F  shel -1.59
buck
Al  core  F   shel  3760.000831  0.222000   0.00000 0.0 10.0
buck4
F   shel  F   shel  1127.7 0.2753 15.83 2.0 2.79 3.031 12.0
spring
F     20.77
xtol opt 6.000
ftol opt 5.000
gtol opt 8.000
switch_min rfo gnorm 0.01
maxcyc 2000

output xyz 003/003_eig