opti shel conp eigenvectors
cartesian
Al  core		-1.683522761		2.54650742		-1.217001291
Al  core		-0.541456855		0.011254706		-2.363216374
Al  core		-2.219475476		-0.330163418		-0.521911837
F   core		-0.613348541		3.486186136		-0.067492657
F   core		-2.976990247		3.305260493		-2.255075092
F   core		-1.24838498		-1.682005027		-1.604509961
F   core		-2.685483962		1.450988583		-0.032581438
F   core		-3.214385763		-1.325880632		0.616885253
F   core		0.643221398		-0.540992341		-3.616100504
F   core		-0.436940425		1.908488414		-2.499928531
F   core		-2.488828157		0.375709151		-2.353405728
F   core		-0.361951368		0.360144739		-0.418025408
F   shel		-0.613348541		3.486186136		-0.067492657
F   shel		-2.976990247		3.305260493		-2.255075092
F   shel		-1.24838498		-1.682005027		-1.604509961
F   shel		-2.685483962		1.450988583		-0.032581438
F   shel		-3.214385763		-1.325880632		0.616885253
F   shel		0.643221398		-0.540992341		-3.616100504
F   shel		-0.436940425		1.908488414		-2.499928531
F   shel		-2.488828157		0.375709151		-2.353405728
F   shel		-0.361951368		0.360144739		-0.418025408
species
Al core 3.00
F  core 0.59
F  shel -1.59
buck
Al  core  F   shel  3760.000831  0.222000   0.00000 0.0 10.0
buck4
F   shel  F   shel  1127.7 0.2753 15.83 2.0 2.79 3.031 12.0
spring
F     20.77
xtol opt 6.000
ftol opt 5.000
gtol opt 8.000
switch_min rfo gnorm 0.01
maxcyc 2000

output xyz 005/1/sp_mod_-50/sp_mod_-50_eig
output drv 005/1/sp_mod_-50/sp_mod_-50_F_out