single eigenvectors
cartesian
Al  core		-0.291008038		1.04995616		-1.773157336
Al  core		-0.436854781		1.076822491		1.288199601
Al  core		-2.925125703		0.479819078		-1.817990609
F   core		-3.559930855		0.306970936		-3.687430561
F   core		-1.416486958		-0.574019504		-1.844919938
F   core		-1.985899293		2.060701389		-1.895170761
F   core		-2.048767777		0.712453855		0.449004109
F   core		0.567453416		1.262521897		-0.355593775
F   core		-0.302945381		2.731915204		1.988705371
F   core		0.362823808		-0.348665071		2.047457158
F   core		-4.320941367		0.202549126		-0.539100913
F   core		0.734868019		1.244033103		-3.222053844
F   shel		-3.559930855		0.306970936		-3.687430561
F   shel		-1.416486958		-0.574019504		-1.844919938
F   shel		-1.985899293		2.060701389		-1.895170761
F   shel		-2.048767777		0.712453855		0.449004109
F   shel		0.567453416		1.262521897		-0.355593775
F   shel		-0.302945381		2.731915204		1.988705371
F   shel		0.362823808		-0.348665071		2.047457158
F   shel		-4.320941367		0.202549126		-0.539100913
F   shel		0.734868019		1.244033103		-3.222053844
species
Al core 3.00
F  core 0.59
F  shel -1.59
buck
Al  core  F   shel  3760.000831  0.222000   0.00000 0.0 10.0
buck4
F   shel  F   shel  1127.7 0.2753 15.83 2.0 2.79 3.031 12.0
spring
F     20.77
xtol opt 6.000
ftol opt 5.000
gtol opt 8.000
switch_min rfo gnorm 0.01
maxcyc 2000

output xyz 003/5/sp_mod_-20/sp_mod_-20_eig