opti shel conp eigenvectors
cartesian
Al  core		-0.053984657		1.618816096		2.159402221
Al  core		2.549266196		2.585181525		1.769886275
Al  core		1.382259758		2.642508981		-0.642872953
F   core		1.021286852		3.074561819		2.839023732
F   core		-1.558256447		2.666314843		2.179795995
F   core		-0.47304996		-0.044818918		2.75624126
F   core		1.829468869		0.849868885		1.937527234
F   core		2.985138842		1.838523172		-0.069275454
F   core		1.107663214		3.016386252		-2.392080904
F   core		1.767836368		3.996641887		0.636548165
F   core		4.130920466		3.107042911		2.463206168
F   core		0.0103581		1.782544668		0.215434505
F   shel		1.021286852		3.074561819		2.839023732
F   shel		-1.558256447		2.666314843		2.179795995
F   shel		-0.47304996		-0.044818918		2.75624126
F   shel		1.829468869		0.849868885		1.937527234
F   shel		2.985138842		1.838523172		-0.069275454
F   shel		1.107663214		3.016386252		-2.392080904
F   shel		1.767836368		3.996641887		0.636548165
F   shel		4.130920466		3.107042911		2.463206168
F   shel		0.0103581		1.782544668		0.215434505
species
Al core 3.00
F  core 0.59
F  shel -1.59
buck
Al  core  F   shel  3760.000831  0.222000   0.00000 0.0 10.0
buck4
F   shel  F   shel  1127.7 0.2753 15.83 2.0 2.79 3.031 12.0
spring
F     20.77
xtol opt 6.000
ftol opt 5.000
gtol opt 8.000
switch_min rfo gnorm 0.01
maxcyc 2000

output xyz 004/0/sp_mod_10/sp_mod_10_eig
output drv 004/0/sp_mod_10/sp_mod_10_F_out