single eigenvectors
cartesian
Al  core		-0.342952038		0.92144316		-1.820123136
Al  core		-0.450670981		1.115712091		1.278341801
Al  core		-3.036946503		0.522442878		-1.854891609
F   core		-3.541527855		0.327527336		-3.594376561
F   core		-1.448886958		-0.600051304		-1.786385338
F   core		-1.869056693		2.058162589		-1.945610761
F   core		-2.050779777		0.806486655		0.455840109
F   core		0.616402016		1.183093697		-0.297855175
F   core		-0.215839781		2.794000804		1.922599371
F   core		0.278739608		-0.334974071		2.110020558
F   core		-4.314108967		0.386511726		-0.576683313
F   core		0.786843819		1.033709703		-3.234966444
F   shel		-3.541527855		0.327527336		-3.594376561
F   shel		-1.448886958		-0.600051304		-1.786385338
F   shel		-1.869056693		2.058162589		-1.945610761
F   shel		-2.050779777		0.806486655		0.455840109
F   shel		0.616402016		1.183093697		-0.297855175
F   shel		-0.215839781		2.794000804		1.922599371
F   shel		0.278739608		-0.334974071		2.110020558
F   shel		-4.314108967		0.386511726		-0.576683313
F   shel		0.786843819		1.033709703		-3.234966444
species
Al core 3.00
F  core 0.59
F  shel -1.59
buck
Al  core  F   shel  3760.000831  0.222000   0.00000 0.0 10.0
buck4
F   shel  F   shel  1127.7 0.2753 15.83 2.0 2.79 3.031 12.0
spring
F     20.77
xtol opt 6.000
ftol opt 5.000
gtol opt 8.000
switch_min rfo gnorm 0.01
maxcyc 2000

output xyz 003/0/sp_mod_40/sp_mod_40_eig