opti shel conp eigenvectors
cartesian
Al  core		1.22330168		0.118142317		2.475199073
Al  core		1.276784		1.189243		-0.083083
Al  core		-0.259766562		0.76659025		-2.353611773
F   core		-1.401343172		-0.683878453		-2.361052606
F   core		1.792959253		-0.484901953		0.714683452
F   core		-0.158867861		2.06377529		-3.687560333
F   core		-0.49346381		1.685251753		-0.653896049
F   core		2.587876557		2.420946512		-0.320355443
F   core		1.468075239		0.205748405		-1.777633254
F   core		0.640675117		1.754854429		1.691967039
F   core		2.752364969		0.352223076		3.514167437
F   core		-0.248656325		-0.886669352		2.955619071
F   shel		-1.401343172		-0.683878453		-2.361052606
F   shel		1.792959253		-0.484901953		0.714683452
F   shel		-0.158867861		2.06377529		-3.687560333
F   shel		-0.49346381		1.685251753		-0.653896049
F   shel		2.587876557		2.420946512		-0.320355443
F   shel		1.468075239		0.205748405		-1.777633254
F   shel		0.640675117		1.754854429		1.691967039
F   shel		2.752364969		0.352223076		3.514167437
F   shel		-0.248656325		-0.886669352		2.955619071
species
Al core 3.00
F  core 0.59
F  shel -1.59
buck
Al  core  F   shel  3760.000831  0.222000   0.00000 0.0 10.0
buck4
F   shel  F   shel  1127.7 0.2753 15.83 2.0 2.79 3.031 12.0
spring
F     20.77
xtol opt 6.000
ftol opt 5.000
gtol opt 8.000
switch_min rfo gnorm 0.01
maxcyc 2000

output xyz 001/1/sp_mod_-100/sp_mod_-100_eig
output drv 001/1/sp_mod_-100/sp_mod_-100_F_out