opti shel conp eigenvectors
cartesian
Al  core		-0.149608657		1.706638096		2.142743421
Al  core		2.453641796		2.673003525		1.753227475
Al  core		1.286635358		2.730331381		-0.659531753
F   core		0.941040852		3.148260619		2.825044132
F   core		-1.638502447		2.740013643		2.165816395
F   core		-0.55329596		0.028879882		2.74226126
F   core		1.749222869		0.923567685		1.923547234
F   core		2.904892842		1.912221972		-0.083255454
F   core		1.027417214		3.090085052		-2.406060504
F   core		1.687590368		4.070340687		0.622568565
F   core		4.050674466		3.180741711		2.449226168
F   core		-0.0698879		1.856243468		0.201454505
F   shel		0.941040852		3.148260619		2.825044132
F   shel		-1.638502447		2.740013643		2.165816395
F   shel		-0.55329596		0.028879882		2.74226126
F   shel		1.749222869		0.923567685		1.923547234
F   shel		2.904892842		1.912221972		-0.083255454
F   shel		1.027417214		3.090085052		-2.406060504
F   shel		1.687590368		4.070340687		0.622568565
F   shel		4.050674466		3.180741711		2.449226168
F   shel		-0.0698879		1.856243468		0.201454505
species
Al core 3.00
F  core 0.59
F  shel -1.59
buck
Al  core  F   shel  3760.000831  0.222000   0.00000 0.0 10.0
buck4
F   shel  F   shel  1127.7 0.2753 15.83 2.0 2.79 3.031 12.0
spring
F     20.77
xtol opt 6.000
ftol opt 5.000
gtol opt 8.000
switch_min rfo gnorm 0.01
maxcyc 2000

output xyz 004/0/sp_mod_-30/sp_mod_-30_eig
output drv 004/0/sp_mod_-30/sp_mod_-30_F_out