single eigenvectors
cartesian
Al  core		1.282913262		0.050324516		2.441326237
Al  core		1.3215216		1.2312718		-0.0911794
Al  core		-0.317257985		0.836399764		-2.320123073
F   core		-1.668843804		-0.369930944		-2.215432077
F   core		2.139330192		-0.504430354		0.824939513
F   core		0.051725384		1.822502854		-3.797757994
F   core		-0.518141826		2.006994481		-0.822369895
F   core		2.692735753		2.519456509		-0.339332244
F   core		1.268351423		-0.076568072		-1.766731577
F   core		0.352835271		1.579130223		1.769301502
F   core		2.54581713		0.597294619		3.623633809
F   core		0.019975159		-1.199554859		2.809793986
F   shel		-1.668843804		-0.369930944		-2.215432077
F   shel		2.139330192		-0.504430354		0.824939513
F   shel		0.051725384		1.822502854		-3.797757994
F   shel		-0.518141826		2.006994481		-0.822369895
F   shel		2.692735753		2.519456509		-0.339332244
F   shel		1.268351423		-0.076568072		-1.766731577
F   shel		0.352835271		1.579130223		1.769301502
F   shel		2.54581713		0.597294619		3.623633809
F   shel		0.019975159		-1.199554859		2.809793986
species
Al core 3.00
F  core 0.59
F  shel -1.59
buck
Al  core  F   shel  3760.000831  0.222000   0.00000 0.0 10.0
buck4
F   shel  F   shel  1127.7 0.2753 15.83 2.0 2.79 3.031 12.0
spring
F     20.77
xtol opt 6.000
ftol opt 5.000
gtol opt 8.000
switch_min rfo gnorm 0.01
maxcyc 2000

output xyz 001/4/sp_mod_40/sp_mod_40_eig