opti shel conp eigenvectors
cartesian
Al  core		-0.111191857		1.617486796		2.241463221
Al  core		2.499860996		2.563302825		1.742461075
Al  core		1.337213858		2.613108181		-0.605706353
F   core		0.972370752		3.124530019		2.767172332
F   core		-1.536783247		2.773782843		2.095586695
F   core		-0.42691916		-0.114434318		2.73437546
F   core		1.762924769		0.830706585		1.926722734
F   core		3.050595642		1.950454572		-0.087014754
F   core		1.103051714		3.045661052		-2.342752404
F   core		1.787635268		4.013162187		0.602332365
F   core		4.072468266		3.126515211		2.423889368
F   core		-0.0492716		1.843689368		0.290370605
F   shel		0.972370752		3.124530019		2.767172332
F   shel		-1.536783247		2.773782843		2.095586695
F   shel		-0.42691916		-0.114434318		2.73437546
F   shel		1.762924769		0.830706585		1.926722734
F   shel		3.050595642		1.950454572		-0.087014754
F   shel		1.103051714		3.045661052		-2.342752404
F   shel		1.787635268		4.013162187		0.602332365
F   shel		4.072468266		3.126515211		2.423889368
F   shel		-0.0492716		1.843689368		0.290370605
species
Al core 3.00
F  core 0.59
F  shel -1.59
buck
Al  core  F   shel  3760.000831  0.222000   0.00000 0.0 10.0
buck4
F   shel  F   shel  1127.7 0.2753 15.83 2.0 2.79 3.031 12.0
spring
F     20.77
xtol opt 6.000
ftol opt 5.000
gtol opt 8.000
switch_min rfo gnorm 0.01
maxcyc 2000

output xyz 004/3/sp_mod_-30/sp_mod_-30_eig
output drv 004/3/sp_mod_-30/sp_mod_-30_F_out