opti shel conp eigenvectors
cartesian
Al  core		-0.510059638		0.99996476		-1.912104736
Al  core		-0.469921514		1.069302053		1.268594636
Al  core		-3.209514919		0.416021689		-1.940458142
F   core		-3.475259461		0.330288208		-3.424321908
F   core		-1.298626557		-0.538372901		-1.837011245
F   core		-1.863900687		2.077201403		-1.886896583
F   core		-2.005239125		0.722245739		0.469167824
F   core		0.654342327		1.284780043		-0.173125911
F   core		-0.299560375		2.753546397		1.995132547
F   core		0.374785915		-0.366719658		2.054641045
F   core		-4.188348692		0.22881887		-0.664203165
F   core		0.771301827		1.251228937		-3.257610429
F   shel		-3.475259461		0.330288208		-3.424321908
F   shel		-1.298626557		-0.538372901		-1.837011245
F   shel		-1.863900687		2.077201403		-1.886896583
F   shel		-2.005239125		0.722245739		0.469167824
F   shel		0.654342327		1.284780043		-0.173125911
F   shel		-0.299560375		2.753546397		1.995132547
F   shel		0.374785915		-0.366719658		2.054641045
F   shel		-4.188348692		0.22881887		-0.664203165
F   shel		0.771301827		1.251228937		-3.257610429
species
Al core 3.00
F  core 0.59
F  shel -1.59
buck
Al  core  F   shel  3760.000831  0.222000   0.00000 0.0 10.0
buck4
F   shel  F   shel  1127.7 0.2753 15.83 2.0 2.79 3.031 12.0
spring
F     20.77
xtol opt 6.000
ftol opt 5.000
gtol opt 8.000
switch_min rfo gnorm 0.01
maxcyc 2000

output xyz 003/5/sp_mod_40/sp_mod_40_eig
output drv 003/5/sp_mod_40/sp_mod_40_F_out