opti shel conp eigenvectors
cartesian
Al  core		-0.078793357		1.666554796		2.156300421
Al  core		2.550109196		2.659689825		1.797063175
Al  core		1.365761558		2.632618981		-0.613890653
F   core		0.965237052		3.226694119		2.724008032
F   core		-1.578263947		2.701394943		2.539198195
F   core		-0.56759006		-0.215657918		2.11839206
F   core		1.878010769		0.913771485		2.176328434
F   core		2.894051142		1.720695972		0.008414046
F   core		1.026610514		2.858980652		-2.388714204
F   core		1.889666168		4.055359587		0.540247065
F   core		4.135443366		3.238114311		2.426953868
F   core		-0.039596		1.898136068		0.312024905
F   shel		0.965237052		3.226694119		2.724008032
F   shel		-1.578263947		2.701394943		2.539198195
F   shel		-0.56759006		-0.215657918		2.11839206
F   shel		1.878010769		0.913771485		2.176328434
F   shel		2.894051142		1.720695972		0.008414046
F   shel		1.026610514		2.858980652		-2.388714204
F   shel		1.889666168		4.055359587		0.540247065
F   shel		4.135443366		3.238114311		2.426953868
F   shel		-0.039596		1.898136068		0.312024905
species
Al core 3.00
F  core 0.59
F  shel -1.59
buck
Al  core  F   shel  3760.000831  0.222000   0.00000 0.0 10.0
buck4
F   shel  F   shel  1127.7 0.2753 15.83 2.0 2.79 3.031 12.0
spring
F     20.77
xtol opt 6.000
ftol opt 5.000
gtol opt 8.000
switch_min rfo gnorm 0.01
maxcyc 2000

output xyz 004/1/sp_mod_90/sp_mod_90_eig
output drv 004/1/sp_mod_90/sp_mod_90_F_out