opti shel conp eigenvectors
cartesian
Al  core		0.263149872		-2.331311911		-1.799680661
Al  core		2.04056723		-0.539180056		-0.820296524
Al  core		-0.328668106		0.310614003		-1.816658383
F   core		3.635728388		-0.176826016		-0.054831523
F   core		-0.189224374		-4.038074293		-2.179896436
F   core		2.091619438		-1.832089176		-2.280660389
F   core		1.534916495		0.639668839		-2.29021692
F   core		-1.471455122		1.655022331		-2.201907611
F   core		-1.142909386		-1.257225052		-0.981455969
F   core		-0.125754074		-1.036760109		-3.212851181
F   core		0.517761196		0.419203798		-0.058821702
F   core		1.074464134		-2.05255421		-0.049265073
F   shel		3.635728388		-0.176826016		-0.054831523
F   shel		-0.189224374		-4.038074293		-2.179896436
F   shel		2.091619438		-1.832089176		-2.280660389
F   shel		1.534916495		0.639668839		-2.29021692
F   shel		-1.471455122		1.655022331		-2.201907611
F   shel		-1.142909386		-1.257225052		-0.981455969
F   shel		-0.125754074		-1.036760109		-3.212851181
F   shel		0.517761196		0.419203798		-0.058821702
F   shel		1.074464134		-2.05255421		-0.049265073
species
Al core 3.00
F  core 0.59
F  shel -1.59
buck
Al  core  F   shel  3760.000831  0.222000   0.00000 0.0 10.0
buck4
F   shel  F   shel  1127.7 0.2753 15.83 2.0 2.79 3.031 12.0
spring
F     20.77
xtol opt 6.000
ftol opt 5.000
gtol opt 8.000
switch_min rfo gnorm 0.01
maxcyc 2000

output xyz 006/0/sp_mod_-10/sp_mod_-10_eig
output drv 006/0/sp_mod_-10/sp_mod_-10_F_out