opti shel conp eigenvectors
cartesian
Al  core		0.336941593		-0.525105158		1.820948939
Al  core		2.459107365		-1.820174272		-0.551223497
Al  core		-0.987087381		-1.864432558		-1.053271343
F   core		3.549567907		-0.395863593		-1.15467198
F   core		-1.895555654		-0.465793888		-1.947927397
F   core		2.753493795		-3.685529694		-0.486364243
F   core		-1.240737566		-3.736826402		-1.06825112
F   core		1.951968397		-1.438491393		1.281323802
F   core		0.844176164		-1.470499682		-1.577506865
F   core		0.092220952		-1.222534763		3.562262689
F   core		0.411047571		1.233145099		1.157265936
F   core		-1.033542668		-1.476833383		0.846389214
F   shel		3.549567907		-0.395863593		-1.15467198
F   shel		-1.895555654		-0.465793888		-1.947927397
F   shel		2.753493795		-3.685529694		-0.486364243
F   shel		-1.240737566		-3.736826402		-1.06825112
F   shel		1.951968397		-1.438491393		1.281323802
F   shel		0.844176164		-1.470499682		-1.577506865
F   shel		0.092220952		-1.222534763		3.562262689
F   shel		0.411047571		1.233145099		1.157265936
F   shel		-1.033542668		-1.476833383		0.846389214
species
Al core 3.00
F  core 0.59
F  shel -1.59
buck
Al  core  F   shel  3760.000831  0.222000   0.00000 0.0 10.0
buck4
F   shel  F   shel  1127.7 0.2753 15.83 2.0 2.79 3.031 12.0
spring
F     20.77
xtol opt 6.000
ftol opt 5.000
gtol opt 8.000
switch_min rfo gnorm 0.01
maxcyc 2000

output xyz 002/4/sp_mod_-40/sp_mod_-40_eig
output drv 002/4/sp_mod_-40/sp_mod_-40_F_out