single eigenvectors
cartesian
Al  core		-0.089396613		1.659085372		2.25840342
Al  core		2.512152496		2.611092225		1.739558375
Al  core		1.385660084		2.678063984		-0.657134054
F   core		0.997931578		3.118060336		2.844719063
F   core		-1.602937083		2.702220922		2.172200186
F   core		-0.505866071		-0.055278866		2.74948723
F   core		1.890817953		0.860474593		1.910566465
F   core		2.984944145		1.837615853		-0.045250816
F   core		1.073823809		3.030672133		-2.409296212
F   core		1.765794694		4.023013587		0.675247667
F   core		4.084003368		3.112167777		2.44455098
F   core		-0.050788791		1.78119921		0.113013693
F   shel		0.997931578		3.118060336		2.844719063
F   shel		-1.602937083		2.702220922		2.172200186
F   shel		-0.505866071		-0.055278866		2.74948723
F   shel		1.890817953		0.860474593		1.910566465
F   shel		2.984944145		1.837615853		-0.045250816
F   shel		1.073823809		3.030672133		-2.409296212
F   shel		1.765794694		4.023013587		0.675247667
F   shel		4.084003368		3.112167777		2.44455098
F   shel		-0.050788791		1.78119921		0.113013693
species
Al core 3.00
F  core 0.59
F  shel -1.59
buck
Al  core  F   shel  3760.000831  0.222000   0.00000 0.0 10.0
buck4
F   shel  F   shel  1127.7 0.2753 15.83 2.0 2.79 3.031 12.0
spring
F     20.77
xtol opt 6.000
ftol opt 5.000
gtol opt 8.000
switch_min rfo gnorm 0.01
maxcyc 2000

output xyz 004/4/sp_mod_20/sp_mod_20_eig