opti shel conp eigenvectors
cartesian
Al  core		0.266077972		-2.330423611		-1.806659861
Al  core		2.12712713		-0.517637256		-1.007756624
Al  core		-0.418157206		0.288182903		-1.622220083
F   core		3.738849288		-0.151338616		-0.278074023
F   core		-0.178460974		-4.035089893		-2.204365636
F   core		2.317923638		-2.130357276		-2.135186589
F   core		1.519165495		0.705308339		-2.25327442
F   core		-1.585339422		1.626550531		-1.954194911
F   core		-1.501703486		-1.364241852		-1.271798769
F   core		0.317467026		-0.907998509		-3.105688181
F   core		0.506376996		0.346485998		-0.035965002
F   core		0.790868134		-1.76895261		-0.071358173
F   shel		3.738849288		-0.151338616		-0.278074023
F   shel		-0.178460974		-4.035089893		-2.204365636
F   shel		2.317923638		-2.130357276		-2.135186589
F   shel		1.519165495		0.705308339		-2.25327442
F   shel		-1.585339422		1.626550531		-1.954194911
F   shel		-1.501703486		-1.364241852		-1.271798769
F   shel		0.317467026		-0.907998509		-3.105688181
F   shel		0.506376996		0.346485998		-0.035965002
F   shel		0.790868134		-1.76895261		-0.071358173
species
Al core 3.00
F  core 0.59
F  shel -1.59
buck
Al  core  F   shel  3760.000831  0.222000   0.00000 0.0 10.0
buck4
F   shel  F   shel  1127.7 0.2753 15.83 2.0 2.79 3.031 12.0
spring
F     20.77
xtol opt 6.000
ftol opt 5.000
gtol opt 8.000
switch_min rfo gnorm 0.01
maxcyc 2000

output xyz 006/1/sp_mod_-100/sp_mod_-100_eig
output drv 006/1/sp_mod_-100/sp_mod_-100_F_out