opti conp conj prop eigenvectors
cartesian
Al  core         0.275528972        -2.328040611        -1.827140861
Al  core         2.034701136        -0.540947250        -0.807449638
Al  core        -0.335181210         0.309109904        -1.802045070
F   core          3.625117289        -0.180022606        -0.031593024
F   core         -0.166831974        -4.032156893        -2.229568636
F   core          2.101025649        -1.811793287        -2.287932591
F   core          1.529485492         0.656214339        -2.264446420
F   core         -1.483236420         1.652301539        -2.175473906
F   core         -1.142593498        -1.274951861        -0.995749772
F   core         -0.116855958        -1.016257510        -3.218736171
F   core          0.503748000         0.397520000        -0.041460000
F   core          1.075288121        -2.070487602        -0.064946184
F   shel          3.625117289        -0.180022606        -0.031593024
F   shel         -0.166831974        -4.032156893        -2.229568636
F   shel          2.101025649        -1.811793287        -2.287932591
F   shel          1.529485492         0.656214339        -2.264446420
F   shel         -1.483236420         1.652301539        -2.175473906
F   shel         -1.142593498        -1.274951861        -0.995749772
F   shel         -0.116855958        -1.016257510        -3.218736171
F   shel          0.503748000         0.397520000        -0.041460000
F   shel          1.075288121        -2.070487602        -0.064946184
species
Al core 3.00
F  core 0.59
F  shel -1.59
buck
Al  core  F   shel  3760.000831  0.222000   0.00000 0.0 10.0
buck4
F   shel  F   shel  1127.7 0.2753 15.83 2.0 2.79 3.031 12.0
spring
F     20.77
xtol opt 6.000
ftol opt 5.000
gtol opt 8.000
switch_min rfo gnorm 0.01
maxcyc 2000

output xyz 006/006_eig