opti shel conp eigenvectors
cartesian
Al  core		-1.569790161		2.58598522		-1.373799691
Al  core		-0.711524055		0.227337806		-2.269639674
Al  core		-2.216215576		-0.605808318		-0.378714837
F   core		-0.718062041		3.693733536		-0.205002457
F   core		-3.030482947		3.173590193		-2.301068392
F   core		-1.58633708		-1.717534827		-1.491278661
F   core		-2.368296862		1.273600383		-0.263487238
F   core		-3.373082063		-1.551041632		0.688290153
F   core		0.506213098		-0.317013741		-3.464188704
F   core		-0.074955325		2.156504414		-2.492578331
F   core		-2.419986557		0.481474051		-2.342487428
F   core		-0.254856268		0.168521039		-0.453733908
F   shel		-0.718062041		3.693733536		-0.205002457
F   shel		-3.030482947		3.173590193		-2.301068392
F   shel		-1.58633708		-1.717534827		-1.491278661
F   shel		-2.368296862		1.273600383		-0.263487238
F   shel		-3.373082063		-1.551041632		0.688290153
F   shel		0.506213098		-0.317013741		-3.464188704
F   shel		-0.074955325		2.156504414		-2.492578331
F   shel		-2.419986557		0.481474051		-2.342487428
F   shel		-0.254856268		0.168521039		-0.453733908
species
Al core 3.00
F  core 0.59
F  shel -1.59
buck
Al  core  F   shel  3760.000831  0.222000   0.00000 0.0 10.0
buck4
F   shel  F   shel  1127.7 0.2753 15.83 2.0 2.79 3.031 12.0
spring
F     20.77
xtol opt 6.000
ftol opt 5.000
gtol opt 8.000
switch_min rfo gnorm 0.01
maxcyc 2000

output xyz 005/3/sp_mod_90/sp_mod_90_eig
output drv 005/3/sp_mod_90/sp_mod_90_F_out