single eigenvectors
cartesian
Al  core		-0.066384613		1.622457772		2.05207182
Al  core		2.538567696		2.603181825		1.791884775
Al  core		1.331047284		2.650865184		-0.636941254
F   core		1.004519178		3.067912736		2.826338663
F   core		-1.553698683		2.667258122		2.180402186
F   core		-0.480356871		0.002490334		2.75600523
F   core		1.727996753		0.876112593		1.957498065
F   core		2.945210545		1.876279853		-0.100290016
F   core		1.101379809		3.038949733		-2.381855412
F   core		1.729755094		4.007119587		0.590858867
F   core		4.137714568		3.138767377		2.47487138
F   core		0.031382009		1.82073961		0.310865293
F   shel		1.004519178		3.067912736		2.826338663
F   shel		-1.553698683		2.667258122		2.180402186
F   shel		-0.480356871		0.002490334		2.75600523
F   shel		1.727996753		0.876112593		1.957498065
F   shel		2.945210545		1.876279853		-0.100290016
F   shel		1.101379809		3.038949733		-2.381855412
F   shel		1.729755094		4.007119587		0.590858867
F   shel		4.137714568		3.138767377		2.47487138
F   shel		0.031382009		1.82073961		0.310865293
species
Al core 3.00
F  core 0.59
F  shel -1.59
buck
Al  core  F   shel  3760.000831  0.222000   0.00000 0.0 10.0
buck4
F   shel  F   shel  1127.7 0.2753 15.83 2.0 2.79 3.031 12.0
spring
F     20.77
xtol opt 6.000
ftol opt 5.000
gtol opt 8.000
switch_min rfo gnorm 0.01
maxcyc 2000

output xyz 004/4/sp_mod_-20/sp_mod_-20_eig