opti shel conp eigenvectors
cartesian
Al  core		-0.404526038		1.22069476		-1.823047536
Al  core		-0.444527514		1.058818053		1.281960636
Al  core		-2.929369319		0.039556489		-1.850821742
F   core		-3.615600661		0.702923408		-3.607130708
F   core		-1.096124157		-0.632539701		-1.743048445
F   core		-2.171388287		1.882483803		-1.986801383
F   core		-2.054026325		0.807184939		0.453981424
F   core		0.613972327		1.188708443		-0.293221511
F   core		-0.328049975		2.730912797		1.982898947
F   core		0.394031115		-0.351039258		2.057887045
F   core		-4.324762292		0.43348967		-0.585039165
F   core		0.761593427		1.178966937		-3.232619629
F   shel		-3.615600661		0.702923408		-3.607130708
F   shel		-1.096124157		-0.632539701		-1.743048445
F   shel		-2.171388287		1.882483803		-1.986801383
F   shel		-2.054026325		0.807184939		0.453981424
F   shel		0.613972327		1.188708443		-0.293221511
F   shel		-0.328049975		2.730912797		1.982898947
F   shel		0.394031115		-0.351039258		2.057887045
F   shel		-4.324762292		0.43348967		-0.585039165
F   shel		0.761593427		1.178966937		-3.232619629
species
Al core 3.00
F  core 0.59
F  shel -1.59
buck
Al  core  F   shel  3760.000831  0.222000   0.00000 0.0 10.0
buck4
F   shel  F   shel  1127.7 0.2753 15.83 2.0 2.79 3.031 12.0
spring
F     20.77
xtol opt 6.000
ftol opt 5.000
gtol opt 8.000
switch_min rfo gnorm 0.01
maxcyc 2000

output xyz 003/3/sp_mod_-80/sp_mod_-80_eig
output drv 003/3/sp_mod_-80/sp_mod_-80_F_out