single eigenvectors
cartesian
Al  core		-1.758795789		2.547528685		-1.166402806
Al  core		-0.45128617		-0.100319396		-2.382002156
Al  core		-2.194227386		-0.220727512		-0.576041849
F   core		-0.77493048		3.682162311		-0.142599773
F   core		-3.01130397		3.177492866		-2.322112719
F   core		-1.284367888		-1.656094237		-1.822631754
F   core		-2.59606848		1.52791031		0.194024385
F   core		-3.19137213		-1.192878546		0.564229764
F   core		0.67250509		-0.60437086		-3.7219944
F   core		-0.451115493		1.779315922		-2.287390122
F   core		-2.470405757		0.471215751		-2.287162028
F   core		-0.323871963		0.15447838		-0.378002388
F   shel		-0.77493048		3.682162311		-0.142599773
F   shel		-3.01130397		3.177492866		-2.322112719
F   shel		-1.284367888		-1.656094237		-1.822631754
F   shel		-2.59606848		1.52791031		0.194024385
F   shel		-3.19137213		-1.192878546		0.564229764
F   shel		0.67250509		-0.60437086		-3.7219944
F   shel		-0.451115493		1.779315922		-2.287390122
F   shel		-2.470405757		0.471215751		-2.287162028
F   shel		-0.323871963		0.15447838		-0.378002388
species
Al core 3.00
F  core 0.59
F  shel -1.59
buck
Al  core  F   shel  3760.000831  0.222000   0.00000 0.0 10.0
buck4
F   shel  F   shel  1127.7 0.2753 15.83 2.0 2.79 3.031 12.0
spring
F     20.77
xtol opt 6.000
ftol opt 5.000
gtol opt 8.000
switch_min rfo gnorm 0.01
maxcyc 2000

output xyz 005/3/sp_mod_-40/sp_mod_-40_eig