opti shel conp eigenvectors
cartesian
Al  core		1.43184268		0.173797517		2.445742873
Al  core		1.2554828		1.2026752		-0.1310608
Al  core		-0.444954762		0.69620825		-2.271555373
F   core		-1.737124972		-0.521905453		-2.072602606
F   core		2.126104053		-0.287336353		0.738232052
F   core		-0.148723261		1.65958829		-3.807698533
F   core		-0.42816141		1.871712353		-0.764595849
F   core		2.524361157		2.460997712		-0.463412843
F   core		1.210368039		-0.005036995		-1.622934054
F   core		0.487572517		1.589411029		1.596570639
F   core		2.705077569		0.779828476		3.550652237
F   core		0.197701275		-1.118368352		2.916221871
F   shel		-1.737124972		-0.521905453		-2.072602606
F   shel		2.126104053		-0.287336353		0.738232052
F   shel		-0.148723261		1.65958829		-3.807698533
F   shel		-0.42816141		1.871712353		-0.764595849
F   shel		2.524361157		2.460997712		-0.463412843
F   shel		1.210368039		-0.005036995		-1.622934054
F   shel		0.487572517		1.589411029		1.596570639
F   shel		2.705077569		0.779828476		3.550652237
F   shel		0.197701275		-1.118368352		2.916221871
species
Al core 3.00
F  core 0.59
F  shel -1.59
buck
Al  core  F   shel  3760.000831  0.222000   0.00000 0.0 10.0
buck4
F   shel  F   shel  1127.7 0.2753 15.83 2.0 2.79 3.031 12.0
spring
F     20.77
xtol opt 6.000
ftol opt 5.000
gtol opt 8.000
switch_min rfo gnorm 0.01
maxcyc 2000

output xyz 001/0/sp_mod_-60/sp_mod_-60_eig
output drv 001/0/sp_mod_-60/sp_mod_-60_F_out