opti shel conp eigenvectors
cartesian
Al  core		-0.049125657		1.594987096		1.897322521
Al  core		2.558379096		2.597249025		1.831129575
Al  core		1.290087658		2.630466081		-0.621796653
F   core		1.009459852		3.030302519		2.812553332
F   core		-1.516769947		2.641035543		2.186553595
F   core		-0.46122496		0.045817782		2.76089376
F   core		1.605881369		0.887840585		1.992696734
F   core		2.915410342		1.905277872		-0.141569454
F   core		1.122046714		3.045157952		-2.361274304
F   core		1.702725368		3.995199087		0.527567265
F   core		4.177997466		3.158716611		2.497611668
F   core		0.0930101		1.850394868		0.459254005
F   shel		1.009459852		3.030302519		2.812553332
F   shel		-1.516769947		2.641035543		2.186553595
F   shel		-0.46122496		0.045817782		2.76089376
F   shel		1.605881369		0.887840585		1.992696734
F   shel		2.915410342		1.905277872		-0.141569454
F   shel		1.122046714		3.045157952		-2.361274304
F   shel		1.702725368		3.995199087		0.527567265
F   shel		4.177997466		3.158716611		2.497611668
F   shel		0.0930101		1.850394868		0.459254005
species
Al core 3.00
F  core 0.59
F  shel -1.59
buck
Al  core  F   shel  3760.000831  0.222000   0.00000 0.0 10.0
buck4
F   shel  F   shel  1127.7 0.2753 15.83 2.0 2.79 3.031 12.0
spring
F     20.77
xtol opt 6.000
ftol opt 5.000
gtol opt 8.000
switch_min rfo gnorm 0.01
maxcyc 2000

output xyz 004/4/sp_mod_-50/sp_mod_-50_eig
output drv 004/4/sp_mod_-50/sp_mod_-50_F_out