opti shel conp eigenvectors
cartesian
Al  core		-0.181482238		1.07495186		-1.703683636
Al  core		-0.420321614		1.080582653		1.298002136
Al  core		-2.782931119		0.511717789		-1.756756442
F   core		-3.602266561		0.295312408		-3.818984508
F   core		-1.475417157		-0.591842801		-1.848874145
F   core		-2.046898587		2.052451403		-1.899307583
F   core		-2.070532325		0.707557739		0.438922424
F   core		0.524008827		1.251392743		-0.446827611
F   core		-0.304638175		2.721099597		1.985491747
F   core		0.356842615		-0.339637758		2.043865345
F   core		-4.387237892		0.18941417		-0.476549565
F   core		0.716651127		1.240435237		-3.204275529
F   shel		-3.602266561		0.295312408		-3.818984508
F   shel		-1.475417157		-0.591842801		-1.848874145
F   shel		-2.046898587		2.052451403		-1.899307583
F   shel		-2.070532325		0.707557739		0.438922424
F   shel		0.524008827		1.251392743		-0.446827611
F   shel		-0.304638175		2.721099597		1.985491747
F   shel		0.356842615		-0.339637758		2.043865345
F   shel		-4.387237892		0.18941417		-0.476549565
F   shel		0.716651127		1.240435237		-3.204275529
species
Al core 3.00
F  core 0.59
F  shel -1.59
buck
Al  core  F   shel  3760.000831  0.222000   0.00000 0.0 10.0
buck4
F   shel  F   shel  1127.7 0.2753 15.83 2.0 2.79 3.031 12.0
spring
F     20.77
xtol opt 6.000
ftol opt 5.000
gtol opt 8.000
switch_min rfo gnorm 0.01
maxcyc 2000

output xyz 003/5/sp_mod_-50/sp_mod_-50_eig
output drv 003/5/sp_mod_-50/sp_mod_-50_F_out