opti shel conp eigenvectors
cartesian
Al  core		0.300597593		-0.288786358		2.049592139
Al  core		2.195598565		-1.718902272		-0.417831097
Al  core		-0.775212981		-1.757055358		-0.850624943
F   core		3.549141907		-0.418579593		-1.15157038
F   core		-1.895461654		-0.488503088		-1.944749797
F   core		2.770750995		-3.700575294		-0.493258243
F   core		-1.254926766		-3.752275202		-1.07972592
F   core		2.071344797		-1.519625793		1.044895802
F   core		0.828250164		-1.520019282		-1.463819265
F   core		0.147748552		-1.092903163		3.169675489
F   core		0.399063971		0.863090699		1.272144736
F   core		-1.078435068		-1.560077383		0.586030014
F   shel		3.549141907		-0.418579593		-1.15157038
F   shel		-1.895461654		-0.488503088		-1.944749797
F   shel		2.770750995		-3.700575294		-0.493258243
F   shel		-1.254926766		-3.752275202		-1.07972592
F   shel		2.071344797		-1.519625793		1.044895802
F   shel		0.828250164		-1.520019282		-1.463819265
F   shel		0.147748552		-1.092903163		3.169675489
F   shel		0.399063971		0.863090699		1.272144736
F   shel		-1.078435068		-1.560077383		0.586030014
species
Al core 3.00
F  core 0.59
F  shel -1.59
buck
Al  core  F   shel  3760.000831  0.222000   0.00000 0.0 10.0
buck4
F   shel  F   shel  1127.7 0.2753 15.83 2.0 2.79 3.031 12.0
spring
F     20.77
xtol opt 6.000
ftol opt 5.000
gtol opt 8.000
switch_min rfo gnorm 0.01
maxcyc 2000

output xyz 002/5/sp_mod_80/sp_mod_80_eig
output drv 002/5/sp_mod_80/sp_mod_80_F_out