opti shel conp eigenvectors
cartesian
Al  core		0.349627193		-0.599315158		1.740413739
Al  core		2.350503365		-1.788743872		-0.519453497
Al  core		-0.892884981		-1.830397758		-0.991956143
F   core		3.476158707		-0.496330793		-1.11277918
F   core		-1.834644854		-0.564535888		-1.886466597
F   core		2.736837395		-3.562341694		-0.491864643
F   core		-1.226307566		-3.613239202		-1.06922272
F   core		1.896719997		-1.414979393		1.210821402
F   core		0.831810164		-1.508492882		-1.489273665
F   core		0.108911752		-1.172361563		3.443268289
F   core		0.406285571		1.135156299		1.198591136
F   core		-0.961087868		-1.451681383		0.794490814
F   shel		3.476158707		-0.496330793		-1.11277918
F   shel		-1.834644854		-0.564535888		-1.886466597
F   shel		2.736837395		-3.562341694		-0.491864643
F   shel		-1.226307566		-3.613239202		-1.06922272
F   shel		1.896719997		-1.414979393		1.210821402
F   shel		0.831810164		-1.508492882		-1.489273665
F   shel		0.108911752		-1.172361563		3.443268289
F   shel		0.406285571		1.135156299		1.198591136
F   shel		-0.961087868		-1.451681383		0.794490814
species
Al core 3.00
F  core 0.59
F  shel -1.59
buck
Al  core  F   shel  3760.000831  0.222000   0.00000 0.0 10.0
buck4
F   shel  F   shel  1127.7 0.2753 15.83 2.0 2.79 3.031 12.0
spring
F     20.77
xtol opt 6.000
ftol opt 5.000
gtol opt 8.000
switch_min rfo gnorm 0.01
maxcyc 2000

output xyz 002/5/sp_mod_0/sp_mod_0_eig
output drv 002/5/sp_mod_0/sp_mod_0_F_out