opti shel conp eigenvectors
cartesian
Al  core		0.330546693		-0.599560158		1.737634239
Al  core		2.361591365		-1.793922872		-0.507648497
Al  core		-0.879024481		-1.824898258		-1.000126643
F   core		3.547484207		-0.607027793		-1.21575218
F   core		-1.798464354		-0.452458388		-1.767832097
F   core		2.647896395		-3.586743194		-0.343985143
F   core		-1.269952566		-3.590540702		-1.23641772
F   core		1.970157997		-1.229308393		1.193347402
F   core		0.847302664		-1.508293882		-1.487016665
F   core		0.181317252		-1.171431563		3.453816289
F   core		0.192990071		1.132416799		1.167517636
F   core		-0.891040868		-1.635509383		0.832867814
F   shel		3.547484207		-0.607027793		-1.21575218
F   shel		-1.798464354		-0.452458388		-1.767832097
F   shel		2.647896395		-3.586743194		-0.343985143
F   shel		-1.269952566		-3.590540702		-1.23641772
F   shel		1.970157997		-1.229308393		1.193347402
F   shel		0.847302664		-1.508293882		-1.487016665
F   shel		0.181317252		-1.171431563		3.453816289
F   shel		0.192990071		1.132416799		1.167517636
F   shel		-0.891040868		-1.635509383		0.832867814
species
Al core 3.00
F  core 0.59
F  shel -1.59
buck
Al  core  F   shel  3760.000831  0.222000   0.00000 0.0 10.0
buck4
F   shel  F   shel  1127.7 0.2753 15.83 2.0 2.79 3.031 12.0
spring
F     20.77
xtol opt 6.000
ftol opt 5.000
gtol opt 8.000
switch_min rfo gnorm 0.01
maxcyc 2000

output xyz 002/1/sp_mod_-50/sp_mod_-50_eig
output drv 002/1/sp_mod_-50/sp_mod_-50_F_out