opti shel conp eigenvectors
cartesian
Al  core		0.017733343		1.552949596		2.171896321
Al  core		2.620984496		2.519315025		1.782380375
Al  core		1.453978058		2.576642181		-0.630378853
F   core		1.081471352		3.019287719		2.849508432
F   core		-1.498071947		2.611040743		2.190280695
F   core		-0.41286546		-0.100093018		2.76672626
F   core		1.889653369		0.794594785		1.948012234
F   core		3.045323342		1.783249072		-0.058790454
F   core		1.167847714		2.961112152		-2.381596204
F   core		1.828020868		3.941367787		0.647032865
F   core		4.191104966		3.051768811		2.473691168
F   core		0.0705426		1.727270568		0.225919505
F   shel		1.081471352		3.019287719		2.849508432
F   shel		-1.498071947		2.611040743		2.190280695
F   shel		-0.41286546		-0.100093018		2.76672626
F   shel		1.889653369		0.794594785		1.948012234
F   shel		3.045323342		1.783249072		-0.058790454
F   shel		1.167847714		2.961112152		-2.381596204
F   shel		1.828020868		3.941367787		0.647032865
F   shel		4.191104966		3.051768811		2.473691168
F   shel		0.0705426		1.727270568		0.225919505
species
Al core 3.00
F  core 0.59
F  shel -1.59
buck
Al  core  F   shel  3760.000831  0.222000   0.00000 0.0 10.0
buck4
F   shel  F   shel  1127.7 0.2753 15.83 2.0 2.79 3.031 12.0
spring
F     20.77
xtol opt 6.000
ftol opt 5.000
gtol opt 8.000
switch_min rfo gnorm 0.01
maxcyc 2000

output xyz 004/0/sp_mod_40/sp_mod_40_eig
output drv 004/0/sp_mod_40/sp_mod_40_F_out