opti shel conp eigenvectors
cartesian
Al  core		-0.041776657		1.631794396		2.141895321
Al  core		2.453768696		2.927702025		1.617805375
Al  core		1.229711858		2.817463381		-0.606226253
F   core		1.014965352		3.062927119		2.827972432
F   core		-1.661737747		2.737970343		2.179424695
F   core		-0.48545306		-0.034743218		2.75528366
F   core		1.734886769		0.585450585		1.962406834
F   core		3.109259742		1.763928072		-0.031515654
F   core		1.099836314		3.012679952		-2.347911804
F   core		1.780756868		3.818577387		0.628034265
F   core		4.217838966		3.145257411		2.508885368
F   core		0.0260308		1.807221968		0.195914705
F   shel		1.014965352		3.062927119		2.827972432
F   shel		-1.661737747		2.737970343		2.179424695
F   shel		-0.48545306		-0.034743218		2.75528366
F   shel		1.734886769		0.585450585		1.962406834
F   shel		3.109259742		1.763928072		-0.031515654
F   shel		1.099836314		3.012679952		-2.347911804
F   shel		1.780756868		3.818577387		0.628034265
F   shel		4.217838966		3.145257411		2.508885368
F   shel		0.0260308		1.807221968		0.195914705
species
Al core 3.00
F  core 0.59
F  shel -1.59
buck
Al  core  F   shel  3760.000831  0.222000   0.00000 0.0 10.0
buck4
F   shel  F   shel  1127.7 0.2753 15.83 2.0 2.79 3.031 12.0
spring
F     20.77
xtol opt 6.000
ftol opt 5.000
gtol opt 8.000
switch_min rfo gnorm 0.01
maxcyc 2000

output xyz 004/5/sp_mod_60/sp_mod_60_eig
output drv 004/5/sp_mod_60/sp_mod_60_F_out