opti shel conp eigenvectors
cartesian
Al  core		-0.078392157		1.655095596		2.155828021
Al  core		2.539109596		2.636333025		1.783133575
Al  core		1.362469158		2.646772581		-0.628622653
F   core		0.981231852		3.167268519		2.773572832
F   core		-1.578287947		2.693992543		2.377910595
F   core		-0.53448846		-0.131540718		2.40032726
F   core		1.847520369		0.893559085		2.068641234
F   core		2.925618342		1.781252372		-0.027667954
F   core		1.053717714		2.937127452		-2.391763804
F   core		1.826603368		4.037451587		0.581494265
F   core		4.124516966		3.188049111		2.441512668
F   core		-0.0263104		1.854950868		0.267542505
F   shel		0.981231852		3.167268519		2.773572832
F   shel		-1.578287947		2.693992543		2.377910595
F   shel		-0.53448846		-0.131540718		2.40032726
F   shel		1.847520369		0.893559085		2.068641234
F   shel		2.925618342		1.781252372		-0.027667954
F   shel		1.053717714		2.937127452		-2.391763804
F   shel		1.826603368		4.037451587		0.581494265
F   shel		4.124516966		3.188049111		2.441512668
F   shel		-0.0263104		1.854950868		0.267542505
species
Al core 3.00
F  core 0.59
F  shel -1.59
buck
Al  core  F   shel  3760.000831  0.222000   0.00000 0.0 10.0
buck4
F   shel  F   shel  1127.7 0.2753 15.83 2.0 2.79 3.031 12.0
spring
F     20.77
xtol opt 6.000
ftol opt 5.000
gtol opt 8.000
switch_min rfo gnorm 0.01
maxcyc 2000

output xyz 004/1/sp_mod_50/sp_mod_50_eig
output drv 004/1/sp_mod_50/sp_mod_50_F_out