opti shel conp eigenvectors
cartesian
Al  core		-0.328587038		0.86931526		-1.816345536
Al  core		-0.450808014		1.087876053		1.281405636
Al  core		-3.099155819		0.825175489		-1.865805242
F   core		-3.458300161		-0.024914092		-3.593249708
F   core		-1.623141657		-0.500535201		-1.929114445
F   core		-1.747347287		2.226954303		-1.809822383
F   core		-2.016961325		0.635683939		0.457251424
F   core		0.581054827		1.341019943		-0.296127011
F   core		-0.278863475		2.746311797		1.997802947
F   core		0.342993615		-0.357871758		2.042821045
F   core		-4.234727792		0.01689467		-0.577093665
F   core		0.734254427		1.305463437		-3.235031629
F   shel		-3.458300161		-0.024914092		-3.593249708
F   shel		-1.623141657		-0.500535201		-1.929114445
F   shel		-1.747347287		2.226954303		-1.809822383
F   shel		-2.016961325		0.635683939		0.457251424
F   shel		0.581054827		1.341019943		-0.296127011
F   shel		-0.278863475		2.746311797		1.997802947
F   shel		0.342993615		-0.357871758		2.042821045
F   shel		-4.234727792		0.01689467		-0.577093665
F   shel		0.734254427		1.305463437		-3.235031629
species
Al core 3.00
F  core 0.59
F  shel -1.59
buck
Al  core  F   shel  3760.000831  0.222000   0.00000 0.0 10.0
buck4
F   shel  F   shel  1127.7 0.2753 15.83 2.0 2.79 3.031 12.0
spring
F     20.77
xtol opt 6.000
ftol opt 5.000
gtol opt 8.000
switch_min rfo gnorm 0.01
maxcyc 2000

output xyz 003/3/sp_mod_70/sp_mod_70_eig
output drv 003/3/sp_mod_70/sp_mod_70_F_out