opti shel conp eigenvectors
cartesian
Al  core		0.237592572		-2.337608211		-1.744924661
Al  core		2.05257753		-0.536438856		-0.846191624
Al  core		-0.315121206		0.314169103		-1.845519283
F   core		3.604791688		-0.185148816		0.012456777
F   core		-0.123697974		-4.021278293		-2.323048836
F   core		2.067192838		-1.824513076		-2.275225389
F   core		1.555927095		0.678055739		-2.30605762
F   core		-1.506044822		1.646549131		-2.126043511
F   core		-1.165976886		-1.253237852		-0.977457369
F   core		-0.113453974		-1.043010909		-3.193724781
F   core		0.519709796		0.386372998		-0.091745802
F   core		1.086698934		-2.06342281		-0.029060173
F   shel		3.604791688		-0.185148816		0.012456777
F   shel		-0.123697974		-4.021278293		-2.323048836
F   shel		2.067192838		-1.824513076		-2.275225389
F   shel		1.555927095		0.678055739		-2.30605762
F   shel		-1.506044822		1.646549131		-2.126043511
F   shel		-1.165976886		-1.253237852		-0.977457369
F   shel		-0.113453974		-1.043010909		-3.193724781
F   shel		0.519709796		0.386372998		-0.091745802
F   shel		1.086698934		-2.06342281		-0.029060173
species
Al core 3.00
F  core 0.59
F  shel -1.59
buck
Al  core  F   shel  3760.000831  0.222000   0.00000 0.0 10.0
buck4
F   shel  F   shel  1127.7 0.2753 15.83 2.0 2.79 3.031 12.0
spring
F     20.77
xtol opt 6.000
ftol opt 5.000
gtol opt 8.000
switch_min rfo gnorm 0.01
maxcyc 2000

output xyz 006/2/sp_mod_-20/sp_mod_-20_eig
output drv 006/2/sp_mod_-20/sp_mod_-20_F_out