opti shel conp eigenvectors
cartesian
Al  core		-0.377320338		1.09481006		-1.820646436
Al  core		-0.445591414		1.063739453		1.281866536
Al  core		-3.014664619		0.434226589		-1.858349142
F   core		-3.528708861		0.300869908		-3.599462908
F   core		-1.344174357		-0.532423801		-1.907298745
F   core		-1.988089887		2.081978703		-1.828265083
F   core		-2.011083925		0.608487239		0.457770524
F   core		0.565133827		1.414688543		-0.297531711
F   core		-0.192402975		2.746525697		1.931181047
F   core		0.263633315		-0.390941558		2.110069045
F   core		-4.279348192		0.22335697		-0.581031365
F   core		0.765175527		1.162389437		-3.232303429
F   shel		-3.528708861		0.300869908		-3.599462908
F   shel		-1.344174357		-0.532423801		-1.907298745
F   shel		-1.988089887		2.081978703		-1.828265083
F   shel		-2.011083925		0.608487239		0.457770524
F   shel		0.565133827		1.414688543		-0.297531711
F   shel		-0.192402975		2.746525697		1.931181047
F   shel		0.263633315		-0.390941558		2.110069045
F   shel		-4.279348192		0.22335697		-0.581031365
F   shel		0.765175527		1.162389437		-3.232303429
species
Al core 3.00
F  core 0.59
F  shel -1.59
buck
Al  core  F   shel  3760.000831  0.222000   0.00000 0.0 10.0
buck4
F   shel  F   shel  1127.7 0.2753 15.83 2.0 2.79 3.031 12.0
spring
F     20.77
xtol opt 6.000
ftol opt 5.000
gtol opt 8.000
switch_min rfo gnorm 0.01
maxcyc 2000

output xyz 003/2/sp_mod_-30/sp_mod_-30_eig
output drv 003/2/sp_mod_-30/sp_mod_-30_F_out