opti shel conp eigenvectors
cartesian
Al  core		-1.721181261		2.57478622		-1.246076491
Al  core		-0.519242355		-0.012409594		-2.328484974
Al  core		-2.178813976		-0.350074518		-0.507422637
F   core		-0.930333341		3.925166436		-0.274970257
F   core		-3.065463247		3.021529793		-2.388312592
F   core		-1.53195728		-1.666591827		-1.860077361
F   core		-2.334586162		1.448068083		0.156251162
F   core		-3.286759163		-1.275725032		0.585022653
F   core		0.595078798		-0.485906541		-3.674552304
F   core		-0.213494125		1.879636514		-2.171240831
F   core		-2.414168957		0.592767751		-2.245120628
F   core		-0.231458368		-0.082815361		-0.381239208
F   shel		-0.930333341		3.925166436		-0.274970257
F   shel		-3.065463247		3.021529793		-2.388312592
F   shel		-1.53195728		-1.666591827		-1.860077361
F   shel		-2.334586162		1.448068083		0.156251162
F   shel		-3.286759163		-1.275725032		0.585022653
F   shel		0.595078798		-0.485906541		-3.674552304
F   shel		-0.213494125		1.879636514		-2.171240831
F   shel		-2.414168957		0.592767751		-2.245120628
F   shel		-0.231458368		-0.082815361		-0.381239208
species
Al core 3.00
F  core 0.59
F  shel -1.59
buck
Al  core  F   shel  3760.000831  0.222000   0.00000 0.0 10.0
buck4
F   shel  F   shel  1127.7 0.2753 15.83 2.0 2.79 3.031 12.0
spring
F     20.77
xtol opt 6.000
ftol opt 5.000
gtol opt 8.000
switch_min rfo gnorm 0.01
maxcyc 2000

output xyz 005/1/sp_mod_60/sp_mod_60_eig
output drv 005/1/sp_mod_60/sp_mod_60_F_out