opti shel conp eigenvectors
cartesian
Al  core		0.355755893		-0.638131258		1.701766439
Al  core		2.369866465		-1.797474072		-0.532156297
Al  core		-0.907593981		-1.839565558		-1.009622543
F   core		3.467035807		-0.506049693		-1.10793028
F   core		-1.827042754		-0.574039988		-1.879181197
F   core		2.732598195		-3.545062494		-0.491690443
F   core		-1.222730166		-3.595859702		-1.06790982
F   core		1.874891897		-1.401898593		1.231562102
F   core		0.832255164		-1.507052082		-1.492455465
F   core		0.104057152		-1.182293863		3.477467389
F   core		0.407188271		1.169164499		1.189396936
F   core		-0.946419468		-1.438131883		0.820548414
F   shel		3.467035807		-0.506049693		-1.10793028
F   shel		-1.827042754		-0.574039988		-1.879181197
F   shel		2.732598195		-3.545062494		-0.491690443
F   shel		-1.222730166		-3.595859702		-1.06790982
F   shel		1.874891897		-1.401898593		1.231562102
F   shel		0.832255164		-1.507052082		-1.492455465
F   shel		0.104057152		-1.182293863		3.477467389
F   shel		0.407188271		1.169164499		1.189396936
F   shel		-0.946419468		-1.438131883		0.820548414
species
Al core 3.00
F  core 0.59
F  shel -1.59
buck
Al  core  F   shel  3760.000831  0.222000   0.00000 0.0 10.0
buck4
F   shel  F   shel  1127.7 0.2753 15.83 2.0 2.79 3.031 12.0
spring
F     20.77
xtol opt 6.000
ftol opt 5.000
gtol opt 8.000
switch_min rfo gnorm 0.01
maxcyc 2000

output xyz 002/5/sp_mod_-10/sp_mod_-10_eig
output drv 002/5/sp_mod_-10/sp_mod_-10_F_out