opti conp conj prop eigenvectors
cartesian
Al  core            0.349679232        -0.597930281         1.740024137
Al  core            2.350484854        -1.788431689        -0.519333908
Al  core           -0.892905094        -1.830089965        -0.991825718
F   core             3.476207861        -0.496312539        -1.113171866
F   core            -1.834592756        -0.564568372        -1.886893942
F   core             2.736730878        -3.562037556        -0.491032370
F   core            -1.226421584        -3.612947704        -1.068316008
F   core             1.896704000        -1.413959000         1.210791000
F   core             0.831810164        -1.508492882        -1.489273665
F   core             0.108904467        -1.170227816         3.443120873
F   core             0.406488402         1.136303672         1.197458439
F   core            -0.961102533        -1.450586935         0.794454569
F   shel             3.476207861        -0.496312539        -1.113171866
F   shel            -1.834592756        -0.564568372        -1.886893942
F   shel             2.736730878        -3.562037556        -0.491032370
F   shel            -1.226421584        -3.612947704        -1.068316008
F   shel             1.896704000        -1.413959000         1.210791000
F   shel             0.831810164        -1.508492882        -1.489273665
F   shel             0.108904467        -1.170227816         3.443120873
F   shel             0.406488402         1.136303672         1.197458439
F   shel            -0.961102533        -1.450586935         0.794454569
species
Al core 3.00
F  core 0.59
F  shel -1.59
buck
Al  core  F   shel  3760.000831  0.222000   0.00000 0.0 10.0
buck4
F   shel  F   shel  1127.7 0.2753 15.83 2.0 2.79 3.031 12.0
spring
F     20.77
xtol opt 6.000
ftol opt 5.000
gtol opt 8.000
switch_min rfo gnorm 0.01
maxcyc 2000

output xyz 002/002_eig