opti shel conp eigenvectors
cartesian
Al  core		-1.778240161		2.45285012		-1.320685291
Al  core		-0.476685855		-0.001366594		-2.322376374
Al  core		-2.170192276		-0.345936018		-0.464076737
F   core		-0.668956041		3.362172136		-0.141163257
F   core		-3.092677147		3.047379993		-2.408319692
F   core		-1.41413228		-1.666793627		-1.752738361
F   core		-2.556156362		1.434882683		0.066305862
F   core		-3.399065163		-0.991030332		0.757739253
F   core		0.700012798		-0.157010841		-3.740214504
F   core		-0.323235925		1.889204114		-2.383897531
F   core		-2.401816057		0.501437651		-2.250796928
F   core		-0.250109068		0.063097339		-0.371180608
F   shel		-0.668956041		3.362172136		-0.141163257
F   shel		-3.092677147		3.047379993		-2.408319692
F   shel		-1.41413228		-1.666793627		-1.752738361
F   shel		-2.556156362		1.434882683		0.066305862
F   shel		-3.399065163		-0.991030332		0.757739253
F   shel		0.700012798		-0.157010841		-3.740214504
F   shel		-0.323235925		1.889204114		-2.383897531
F   shel		-2.401816057		0.501437651		-2.250796928
F   shel		-0.250109068		0.063097339		-0.371180608
species
Al core 3.00
F  core 0.59
F  shel -1.59
buck
Al  core  F   shel  3760.000831  0.222000   0.00000 0.0 10.0
buck4
F   shel  F   shel  1127.7 0.2753 15.83 2.0 2.79 3.031 12.0
spring
F     20.77
xtol opt 6.000
ftol opt 5.000
gtol opt 8.000
switch_min rfo gnorm 0.01
maxcyc 2000

output xyz 005/2/sp_mod_-70/sp_mod_-70_eig
output drv 005/2/sp_mod_-70/sp_mod_-70_F_out