single eigenvectors
cartesian
Al  core		0.372523795		-0.599021078		1.743749117
Al  core		2.337197763		-1.782529054		-0.53361949
Al  core		-0.909517582		-1.83699714		-0.982151536
F   core		3.390568111		-0.363494393		-0.989211603
F   core		-1.878061451		-0.699028889		-2.028828021
F   core		2.843566587		-3.533059877		-0.669319992
F   core		-1.173933573		-3.640477385		-0.868588669
F   core		1.808594396		-1.637784532		1.2317902
F   core		0.813219164		-1.508731682		-1.491982065
F   core		0.022025151		-1.173477441		3.430610681
F   core		0.662240179		1.138443766		1.235879272
F   core		-1.045144269		-1.231087721		0.748438412
F   shel		3.390568111		-0.363494393		-0.989211603
F   shel		-1.878061451		-0.699028889		-2.028828021
F   shel		2.843566587		-3.533059877		-0.669319992
F   shel		-1.173933573		-3.640477385		-0.868588669
F   shel		1.808594396		-1.637784532		1.2317902
F   shel		0.813219164		-1.508731682		-1.491982065
F   shel		0.022025151		-1.173477441		3.430610681
F   shel		0.662240179		1.138443766		1.235879272
F   shel		-1.045144269		-1.231087721		0.748438412
species
Al core 3.00
F  core 0.59
F  shel -1.59
buck
Al  core  F   shel  3760.000831  0.222000   0.00000 0.0 10.0
buck4
F   shel  F   shel  1127.7 0.2753 15.83 2.0 2.79 3.031 12.0
spring
F     20.77
xtol opt 6.000
ftol opt 5.000
gtol opt 8.000
switch_min rfo gnorm 0.01
maxcyc 2000

output xyz 002/1/sp_mod_60/sp_mod_60_eig