opti shel conp eigenvectors
cartesian
Al  core		0.372523793		-0.599021158		1.743749139
Al  core		2.337197765		-1.782529072		-0.533619497
Al  core		-0.909517581		-1.836997158		-0.982151543
F   core		3.390568107		-0.363494393		-0.98921158
F   core		-1.878061454		-0.699028888		-2.028827997
F   core		2.843566595		-3.533059894		-0.669320043
F   core		-1.173933566		-3.640477402		-0.86858872
F   core		1.808594397		-1.637784593		1.231790202
F   core		0.813219164		-1.508731682		-1.491982065
F   core		0.022025152		-1.173477563		3.430610689
F   core		0.662240171		1.138443699		1.235879336
F   core		-1.045144268		-1.231087783		0.748438414
F   shel		3.390568107		-0.363494393		-0.98921158
F   shel		-1.878061454		-0.699028888		-2.028827997
F   shel		2.843566595		-3.533059894		-0.669320043
F   shel		-1.173933566		-3.640477402		-0.86858872
F   shel		1.808594397		-1.637784593		1.231790202
F   shel		0.813219164		-1.508731682		-1.491982065
F   shel		0.022025152		-1.173477563		3.430610689
F   shel		0.662240171		1.138443699		1.235879336
F   shel		-1.045144268		-1.231087783		0.748438414
species
Al core 3.00
F  core 0.59
F  shel -1.59
buck
Al  core  F   shel  3760.000831  0.222000   0.00000 0.0 10.0
buck4
F   shel  F   shel  1127.7 0.2753 15.83 2.0 2.79 3.031 12.0
spring
F     20.77
xtol opt 6.000
ftol opt 5.000
gtol opt 8.000
switch_min rfo gnorm 0.01
maxcyc 2000

output xyz 002/1/sp_mod_60/sp_mod_60_eig
output drv 002/1/sp_mod_60/sp_mod_60_F_out