opti shel conp eigenvectors
cartesian
Al  core		0.384814172		-2.300478411		-2.063985461
Al  core		2.14398633		-0.513385056		-1.044294224
Al  core		-0.225896006		0.336672103		-2.038889683
F   core		3.616711288		-0.182142416		-0.013374623
F   core		-0.175237974		-4.034276693		-2.211350236
F   core		1.999782838		-1.779968676		-2.169043789
F   core		1.453034095		0.580986339		-2.14657642
F   core		-1.491642422		1.650181731		-2.157255511
F   core		-1.259376286		-1.302993452		-0.890998169
F   core		-0.121895974		-1.018940109		-3.059472781
F   core		0.458377196		0.442023798		0.104684398
F   core		1.054708134		-2.13303581		0.080179427
F   shel		3.616711288		-0.182142416		-0.013374623
F   shel		-0.175237974		-4.034276693		-2.211350236
F   shel		1.999782838		-1.779968676		-2.169043789
F   shel		1.453034095		0.580986339		-2.14657642
F   shel		-1.491642422		1.650181731		-2.157255511
F   shel		-1.259376286		-1.302993452		-0.890998169
F   shel		-0.121895974		-1.018940109		-3.059472781
F   shel		0.458377196		0.442023798		0.104684398
F   shel		1.054708134		-2.13303581		0.080179427
species
Al core 3.00
F  core 0.59
F  shel -1.59
buck
Al  core  F   shel  3760.000831  0.222000   0.00000 0.0 10.0
buck4
F   shel  F   shel  1127.7 0.2753 15.83 2.0 2.79 3.031 12.0
spring
F     20.77
xtol opt 6.000
ftol opt 5.000
gtol opt 8.000
switch_min rfo gnorm 0.01
maxcyc 2000

output xyz 006/5/sp_mod_60/sp_mod_60_eig
output drv 006/5/sp_mod_60/sp_mod_60_F_out