opti shel conp eigenvectors
cartesian
Al  core		1.31229668		0.014346817		2.428154573
Al  core		1.276784		1.189243		-0.083083
Al  core		-0.348763062		0.87038425		-2.306567273
F   core		-1.805162672		-0.212908453		-2.147586106
F   core		2.198281753		-0.285722953		0.776555452
F   core		0.153807139		1.69910429		-3.852843833
F   core		-0.29184281		2.056264753		-0.825608549
F   core		2.587876557		2.420946512		-0.320355443
F   core		1.160140239		-0.041270095		-1.549721754
F   core		0.341668117		1.431682429		1.573896039
F   core		2.439688469		0.716891076		3.679452437
F   core		0.155163175		-1.357639352		2.742152571
F   shel		-1.805162672		-0.212908453		-2.147586106
F   shel		2.198281753		-0.285722953		0.776555452
F   shel		0.153807139		1.69910429		-3.852843833
F   shel		-0.29184281		2.056264753		-0.825608549
F   shel		2.587876557		2.420946512		-0.320355443
F   shel		1.160140239		-0.041270095		-1.549721754
F   shel		0.341668117		1.431682429		1.573896039
F   shel		2.439688469		0.716891076		3.679452437
F   shel		0.155163175		-1.357639352		2.742152571
species
Al core 3.00
F  core 0.59
F  shel -1.59
buck
Al  core  F   shel  3760.000831  0.222000   0.00000 0.0 10.0
buck4
F   shel  F   shel  1127.7 0.2753 15.83 2.0 2.79 3.031 12.0
spring
F     20.77
xtol opt 6.000
ftol opt 5.000
gtol opt 8.000
switch_min rfo gnorm 0.01
maxcyc 2000

output xyz 001/2/sp_mod_50/sp_mod_50_eig
output drv 001/2/sp_mod_50/sp_mod_50_F_out