opti shel conp eigenvectors
cartesian
Al  core		1.28213958		0.046532417		2.448228573
Al  core		1.1984932		1.1156926		-0.0689143
Al  core		-0.322316162		0.83471315		-2.325969273
F   core		-1.673552172		-0.369841053		-2.224534806
F   core		1.929901253		-0.085565753		0.635167452
F   core		0.045832939		1.81743989		-3.797733933
F   core		-0.08063881		1.802392353		-0.673873149
F   core		2.404372257		2.248554012		-0.287146043
F   core		1.253044739		0.246935205		-1.378873654
F   core		0.596215617		1.469890129		1.340168339
F   core		2.540584769		0.591907176		3.625623037
F   core		0.021575175		-1.202563852		2.819458971
F   shel		-1.673552172		-0.369841053		-2.224534806
F   shel		1.929901253		-0.085565753		0.635167452
F   shel		0.045832939		1.81743989		-3.797733933
F   shel		-0.08063881		1.802392353		-0.673873149
F   shel		2.404372257		2.248554012		-0.287146043
F   shel		1.253044739		0.246935205		-1.378873654
F   shel		0.596215617		1.469890129		1.340168339
F   shel		2.540584769		0.591907176		3.625623037
F   shel		0.021575175		-1.202563852		2.819458971
species
Al core 3.00
F  core 0.59
F  shel -1.59
buck
Al  core  F   shel  3760.000831  0.222000   0.00000 0.0 10.0
buck4
F   shel  F   shel  1127.7 0.2753 15.83 2.0 2.79 3.031 12.0
spring
F     20.77
xtol opt 6.000
ftol opt 5.000
gtol opt 8.000
switch_min rfo gnorm 0.01
maxcyc 2000

output xyz 001/4/sp_mod_-70/sp_mod_-70_eig
output drv 001/4/sp_mod_-70/sp_mod_-70_F_out