opti shel conp eigenvectors
cartesian
Al  core		-0.077990957		1.643636396		2.155355621
Al  core		2.528109996		2.612976225		1.769203975
Al  core		1.359176758		2.660926181		-0.643354653
F   core		0.997226652		3.107842919		2.823137632
F   core		-1.578311947		2.686590143		2.216622995
F   core		-0.50138686		-0.047423518		2.68226246
F   core		1.817029969		0.873346685		1.960954034
F   core		2.957185542		1.841808772		-0.063749954
F   core		1.080824914		3.015274252		-2.394813404
F   core		1.763540568		4.019543587		0.622741465
F   core		4.113590566		3.137983911		2.456071468
F   core		-0.0130248		1.811765668		0.223060105
F   shel		0.997226652		3.107842919		2.823137632
F   shel		-1.578311947		2.686590143		2.216622995
F   shel		-0.50138686		-0.047423518		2.68226246
F   shel		1.817029969		0.873346685		1.960954034
F   shel		2.957185542		1.841808772		-0.063749954
F   shel		1.080824914		3.015274252		-2.394813404
F   shel		1.763540568		4.019543587		0.622741465
F   shel		4.113590566		3.137983911		2.456071468
F   shel		-0.0130248		1.811765668		0.223060105
species
Al core 3.00
F  core 0.59
F  shel -1.59
buck
Al  core  F   shel  3760.000831  0.222000   0.00000 0.0 10.0
buck4
F   shel  F   shel  1127.7 0.2753 15.83 2.0 2.79 3.031 12.0
spring
F     20.77
xtol opt 6.000
ftol opt 5.000
gtol opt 8.000
switch_min rfo gnorm 0.01
maxcyc 2000

output xyz 004/1/sp_mod_10/sp_mod_10_eig
output drv 004/1/sp_mod_10/sp_mod_10_F_out