opti shel conp eigenvectors
cartesian
Al  core		0.267289793		-0.600372358		1.728418539
Al  core		2.393873765		-1.825620472		-0.585480497
Al  core		-0.871092981		-1.792684158		-0.916436543
F   core		3.617264907		-0.650737193		-1.23939778
F   core		-1.739450654		-0.407094688		-1.725422997
F   core		2.931393995		-3.561060094		-0.636596643
F   core		-1.081153766		-3.610157602		-0.87500152
F   core		1.790152197		-1.432145993		1.111826202
F   core		0.843115364		-1.508347682		-1.487626665
F   core		-0.088818848		-1.174900763		3.414462289
F   core		0.274510571		1.133463699		1.179394136
F   core		-1.091864468		-1.437562783		0.858909814
F   shel		3.617264907		-0.650737193		-1.23939778
F   shel		-1.739450654		-0.407094688		-1.725422997
F   shel		2.931393995		-3.561060094		-0.636596643
F   shel		-1.081153766		-3.610157602		-0.87500152
F   shel		1.790152197		-1.432145993		1.111826202
F   shel		0.843115364		-1.508347682		-1.487626665
F   shel		-0.088818848		-1.174900763		3.414462289
F   shel		0.274510571		1.133463699		1.179394136
F   shel		-1.091864468		-1.437562783		0.858909814
species
Al core 3.00
F  core 0.59
F  shel -1.59
buck
Al  core  F   shel  3760.000831  0.222000   0.00000 0.0 10.0
buck4
F   shel  F   shel  1127.7 0.2753 15.83 2.0 2.79 3.031 12.0
spring
F     20.77
xtol opt 6.000
ftol opt 5.000
gtol opt 8.000
switch_min rfo gnorm 0.01
maxcyc 2000

output xyz 002/2/sp_mod_60/sp_mod_60_eig
output drv 002/2/sp_mod_60/sp_mod_60_F_out