opti shel conp eigenvectors
cartesian
Al  core		0.538253693		-0.424608958		1.684744239
Al  core		2.277372965		-1.961785072		-0.623852597
Al  core		-1.006825881		-1.829973858		-0.831513143
F   core		3.447649407		-0.752030693		-1.37871388
F   core		-1.919232254		-0.581877088		-1.788482697
F   core		2.577268295		-3.727165894		-0.465118443
F   core		-1.427723966		-3.600191002		-0.77090512
F   core		1.973243397		-1.397585993		1.124250402
F   core		0.720781664		-1.644817682		-1.496551065
F   core		0.349829152		-0.877336163		3.458175889
F   core		0.625854071		1.235667399		1.010711636
F   core		-0.914740568		-1.306024483		0.903748114
F   shel		3.447649407		-0.752030693		-1.37871388
F   shel		-1.919232254		-0.581877088		-1.788482697
F   shel		2.577268295		-3.727165894		-0.465118443
F   shel		-1.427723966		-3.600191002		-0.77090512
F   shel		1.973243397		-1.397585993		1.124250402
F   shel		0.720781664		-1.644817682		-1.496551065
F   shel		0.349829152		-0.877336163		3.458175889
F   shel		0.625854071		1.235667399		1.010711636
F   shel		-0.914740568		-1.306024483		0.903748114
species
Al core 3.00
F  core 0.59
F  shel -1.59
buck
Al  core  F   shel  3760.000831  0.222000   0.00000 0.0 10.0
buck4
F   shel  F   shel  1127.7 0.2753 15.83 2.0 2.79 3.031 12.0
spring
F     20.77
xtol opt 6.000
ftol opt 5.000
gtol opt 8.000
switch_min rfo gnorm 0.01
maxcyc 2000

output xyz 002/0/sp_mod_-90/sp_mod_-90_eig
output drv 002/0/sp_mod_-90/sp_mod_-90_F_out