single eigenvectors
cartesian
Al  core		-1.692015189		2.562702285		-1.221738006
Al  core		-0.44107317		0.025384404		-2.442307356
Al  core		-2.288361386		-0.350474112		-0.415262049
F   core		-0.74769868		3.699195111		-0.150431773
F   core		-3.00650477		3.154109466		-2.309999319
F   core		-1.374255088		-1.284653437		-1.645540154
F   core		-2.43773988		1.39486371		-0.091191215
F   core		-3.37334473		-1.424982146		0.736564564
F   core		0.76077109		-0.58383366		-3.7998366
F   core		-0.456966893		1.797881722		-2.264710522
F   core		-2.440665557		0.451594351		-2.295443828
F   core		-0.334100963		0.12179238		-0.436840588
F   shel		-0.74769868		3.699195111		-0.150431773
F   shel		-3.00650477		3.154109466		-2.309999319
F   shel		-1.374255088		-1.284653437		-1.645540154
F   shel		-2.43773988		1.39486371		-0.091191215
F   shel		-3.37334473		-1.424982146		0.736564564
F   shel		0.76077109		-0.58383366		-3.7998366
F   shel		-0.456966893		1.797881722		-2.264710522
F   shel		-2.440665557		0.451594351		-2.295443828
F   shel		-0.334100963		0.12179238		-0.436840588
species
Al core 3.00
F  core 0.59
F  shel -1.59
buck
Al  core  F   shel  3760.000831  0.222000   0.00000 0.0 10.0
buck4
F   shel  F   shel  1127.7 0.2753 15.83 2.0 2.79 3.031 12.0
spring
F     20.77
xtol opt 6.000
ftol opt 5.000
gtol opt 8.000
switch_min rfo gnorm 0.01
maxcyc 2000

output xyz 005/4/sp_mod_60/sp_mod_60_eig