opti shel conp eigenvectors
cartesian
Al  core		-1.773334761		2.54457042		-1.150449291
Al  core		-0.431267855		-0.125523794		-2.390645874
Al  core		-2.192535976		-0.191105918		-0.591220837
F   core		-0.779305041		3.681272136		-0.137799657
F   core		-3.009828747		3.177792993		-2.323731592
F   core		-1.26113948		-1.651368027		-1.848120461
F   core		-2.613589462		1.547472583		0.229217562
F   core		-3.177394263		-1.165327632		0.554686753
F   core		0.685296898		-0.626475341		-3.741825504
F   core		-0.480050925		1.750301414		-2.271606531
F   core		-2.474284157		0.470426651		-2.282906228
F   core		-0.329180868		0.153398239		-0.372176908
F   shel		-0.779305041		3.681272136		-0.137799657
F   shel		-3.009828747		3.177792993		-2.323731592
F   shel		-1.26113948		-1.651368027		-1.848120461
F   shel		-2.613589462		1.547472583		0.229217562
F   shel		-3.177394263		-1.165327632		0.554686753
F   shel		0.685296898		-0.626475341		-3.741825504
F   shel		-0.480050925		1.750301414		-2.271606531
F   shel		-2.474284157		0.470426651		-2.282906228
F   shel		-0.329180868		0.153398239		-0.372176908
species
Al core 3.00
F  core 0.59
F  shel -1.59
buck
Al  core  F   shel  3760.000831  0.222000   0.00000 0.0 10.0
buck4
F   shel  F   shel  1127.7 0.2753 15.83 2.0 2.79 3.031 12.0
spring
F     20.77
xtol opt 6.000
ftol opt 5.000
gtol opt 8.000
switch_min rfo gnorm 0.01
maxcyc 2000

output xyz 005/3/sp_mod_-50/sp_mod_-50_eig
output drv 005/3/sp_mod_-50/sp_mod_-50_F_out