single eigenvectors
cartesian
Al  core		0.294735595		-0.600019878		1.732416917
Al  core		2.379416963		-1.813328254		-0.56347149
Al  core		-0.878356982		-1.80525534		-0.941609736
F   core		3.570229511		-0.599268393		-1.197191603
F   core		-1.771182051		-0.459575089		-1.779104221
F   core		2.866541787		-3.561487277		-0.588352592
F   core		-1.129538373		-3.611184785		-0.939741869
F   core		1.825674796		-1.426423732		1.1448246
F   core		0.839346964		-1.508396082		-1.488175665
F   core		-0.022908649		-1.174054241		3.424064281
F   core		0.318435579		1.134027966		1.185793072
F   core		-1.048272269		-1.442268921		0.837436812
F   shel		3.570229511		-0.599268393		-1.197191603
F   shel		-1.771182051		-0.459575089		-1.779104221
F   shel		2.866541787		-3.561487277		-0.588352592
F   shel		-1.129538373		-3.611184785		-0.939741869
F   shel		1.825674796		-1.426423732		1.1448246
F   shel		0.839346964		-1.508396082		-1.488175665
F   shel		-0.022908649		-1.174054241		3.424064281
F   shel		0.318435579		1.134027966		1.185793072
F   shel		-1.048272269		-1.442268921		0.837436812
species
Al core 3.00
F  core 0.59
F  shel -1.59
buck
Al  core  F   shel  3760.000831  0.222000   0.00000 0.0 10.0
buck4
F   shel  F   shel  1127.7 0.2753 15.83 2.0 2.79 3.031 12.0
spring
F     20.77
xtol opt 6.000
ftol opt 5.000
gtol opt 8.000
switch_min rfo gnorm 0.01
maxcyc 2000

output xyz 002/2/sp_mod_40/sp_mod_40_eig