opti shel conp eigenvectors
cartesian
Al  core		1.05422158		0.315336317		2.564576473
Al  core		1.4645735		0.9702271		-0.1823512
Al  core		-0.547506762		1.10217725		-2.201508373
F   core		-1.531930972		-0.531575353		-2.292020506
F   core		2.044966353		-0.391343353		0.996594152
F   core		0.179723039		1.66887989		-3.866543533
F   core		-0.27428421		1.990104653		-0.546343749
F   core		2.521971357		2.497811012		-0.285517343
F   core		1.102498839		0.071637905		-1.807798254
F   core		0.384023317		1.666712329		1.412511639
F   core		2.674054869		0.443553676		3.555563237
F   core		0.159182775		-1.362326252		2.740029171
F   shel		-1.531930972		-0.531575353		-2.292020506
F   shel		2.044966353		-0.391343353		0.996594152
F   shel		0.179723039		1.66887989		-3.866543533
F   shel		-0.27428421		1.990104653		-0.546343749
F   shel		2.521971357		2.497811012		-0.285517343
F   shel		1.102498839		0.071637905		-1.807798254
F   shel		0.384023317		1.666712329		1.412511639
F   shel		2.674054869		0.443553676		3.555563237
F   shel		0.159182775		-1.362326252		2.740029171
species
Al core 3.00
F  core 0.59
F  shel -1.59
buck
Al  core  F   shel  3760.000831  0.222000   0.00000 0.0 10.0
buck4
F   shel  F   shel  1127.7 0.2753 15.83 2.0 2.79 3.031 12.0
spring
F     20.77
xtol opt 6.000
ftol opt 5.000
gtol opt 8.000
switch_min rfo gnorm 0.01
maxcyc 2000

output xyz 001/3/sp_mod_90/sp_mod_90_eig
output drv 001/3/sp_mod_90/sp_mod_90_F_out