opti conp conj prop eigenvectors
cartesian
Al  core        -1.698798803         2.557962304        -1.228798124
Al  core        -0.531748883        -0.001021099        -2.348065432
Al  core        -2.201382741        -0.340733193        -0.515962115
F   core         -0.754525506         3.682778507        -0.159695241
F   core         -3.015026978         3.176750230        -2.313569326
F   core         -1.378928489        -1.676296053        -1.722417020
F   core         -2.524847230         1.447984954         0.053977849
F   core         -3.248282838        -1.304579115         0.601214394
F   core          0.620335095        -0.517448896        -3.643860923
F   core         -0.334234052         1.893697422        -2.349796379
F   core         -2.454892157         0.474372151        -2.304185228
F   core         -0.302608000         0.155665000        -0.401859000
F   shel         -0.754525506         3.682778507        -0.159695241
F   shel         -3.015026978         3.176750230        -2.313569326
F   shel         -1.378928489        -1.676296053        -1.722417020
F   shel         -2.524847230         1.447984954         0.053977849
F   shel         -3.248282838        -1.304579115         0.601214394
F   shel          0.620335095        -0.517448896        -3.643860923
F   shel         -0.334234052         1.893697422        -2.349796379
F   shel         -2.454892157         0.474372151        -2.304185228
F   shel         -0.302608000         0.155665000        -0.401859000
species
Al core 3.00
F  core 0.59
F  shel -1.59
buck
Al  core  F   shel  3760.000831  0.222000   0.00000 0.0 10.0
buck4
F   shel  F   shel  1127.7 0.2753 15.83 2.0 2.79 3.031 12.0
spring
F     20.77
xtol opt 6.000
ftol opt 5.000
gtol opt 8.000
switch_min rfo gnorm 0.01
maxcyc 2000

output xyz 005/005_eig