opti shel conp eigenvectors
cartesian
Al  core		0.311466193		-0.599805158		1.734854739
Al  core		2.372679365		-1.799101872		-0.495843497
Al  core		-0.865163981		-1.819398758		-1.008297143
F   core		3.618809707		-0.717724793		-1.31872518
F   core		-1.762283854		-0.340380888		-1.649197597
F   core		2.558955395		-3.611144694		-0.196105643
F   core		-1.313597566		-3.567842202		-1.40361272
F   core		2.043595997		-1.043637393		1.175873402
F   core		0.862795164		-1.508094882		-1.484759665
F   core		0.253722752		-1.170501563		3.464364289
F   core		-0.020305429		1.129677299		1.136444136
F   core		-0.820993868		-1.819337383		0.871244814
F   shel		3.618809707		-0.717724793		-1.31872518
F   shel		-1.762283854		-0.340380888		-1.649197597
F   shel		2.558955395		-3.611144694		-0.196105643
F   shel		-1.313597566		-3.567842202		-1.40361272
F   shel		2.043595997		-1.043637393		1.175873402
F   shel		0.862795164		-1.508094882		-1.484759665
F   shel		0.253722752		-1.170501563		3.464364289
F   shel		-0.020305429		1.129677299		1.136444136
F   shel		-0.820993868		-1.819337383		0.871244814
species
Al core 3.00
F  core 0.59
F  shel -1.59
buck
Al  core  F   shel  3760.000831  0.222000   0.00000 0.0 10.0
buck4
F   shel  F   shel  1127.7 0.2753 15.83 2.0 2.79 3.031 12.0
spring
F     20.77
xtol opt 6.000
ftol opt 5.000
gtol opt 8.000
switch_min rfo gnorm 0.01
maxcyc 2000

output xyz 002/1/sp_mod_-100/sp_mod_-100_eig
output drv 002/1/sp_mod_-100/sp_mod_-100_F_out