opti shel conp eigenvectors
cartesian
Al  core		-0.130535857		1.689177196		2.111325921
Al  core		2.511085296		2.681414225		1.858001975
Al  core		1.439218858		2.558338181		-0.619390053
F   core		0.941178552		3.103910519		2.912276432
F   core		-1.701764347		2.615463543		2.141365095
F   core		-0.40467026		-0.013969418		2.72293906
F   core		1.778406169		0.945890385		1.873299034
F   core		3.038487742		1.823003472		-0.041629254
F   core		1.039851714		3.052721352		-2.328107004
F   core		1.757682868		3.960301387		0.653006065
F   core		4.240540166		3.070700811		2.307787968
F   core		-0.0655178		1.875136168		0.203445105
F   shel		0.941178552		3.103910519		2.912276432
F   shel		-1.701764347		2.615463543		2.141365095
F   shel		-0.40467026		-0.013969418		2.72293906
F   shel		1.778406169		0.945890385		1.873299034
F   shel		3.038487742		1.823003472		-0.041629254
F   shel		1.039851714		3.052721352		-2.328107004
F   shel		1.757682868		3.960301387		0.653006065
F   shel		4.240540166		3.070700811		2.307787968
F   shel		-0.0655178		1.875136168		0.203445105
species
Al core 3.00
F  core 0.59
F  shel -1.59
buck
Al  core  F   shel  3760.000831  0.222000   0.00000 0.0 10.0
buck4
F   shel  F   shel  1127.7 0.2753 15.83 2.0 2.79 3.031 12.0
spring
F     20.77
xtol opt 6.000
ftol opt 5.000
gtol opt 8.000
switch_min rfo gnorm 0.01
maxcyc 2000

output xyz 004/2/sp_mod_40/sp_mod_40_eig
output drv 004/2/sp_mod_40/sp_mod_40_F_out