single eigenvectors
cartesian
Al  core		1.282210262		0.046877516		2.447601237
Al  core		1.2096776		1.1261998		-0.0709384
Al  core		-0.321855985		0.834866764		-2.325438073
F   core		-1.673123804		-0.369848944		-2.223708077
F   core		1.948940192		-0.123644354		0.652419513
F   core		0.046369384		1.817900854		-3.797735994
F   core		-0.120411826		1.820992481		-0.687372895
F   core		2.430587753		2.273181509		-0.291890244
F   core		1.254436423		0.217525928		-1.414133577
F   core		0.574090271		1.479821223		1.379180502
F   core		2.54106113		0.592397619		3.625441809
F   core		0.021430159		-1.202289859		2.818580986
F   shel		-1.673123804		-0.369848944		-2.223708077
F   shel		1.948940192		-0.123644354		0.652419513
F   shel		0.046369384		1.817900854		-3.797735994
F   shel		-0.120411826		1.820992481		-0.687372895
F   shel		2.430587753		2.273181509		-0.291890244
F   shel		1.254436423		0.217525928		-1.414133577
F   shel		0.574090271		1.479821223		1.379180502
F   shel		2.54106113		0.592397619		3.625441809
F   shel		0.021430159		-1.202289859		2.818580986
species
Al core 3.00
F  core 0.59
F  shel -1.59
buck
Al  core  F   shel  3760.000831  0.222000   0.00000 0.0 10.0
buck4
F   shel  F   shel  1127.7 0.2753 15.83 2.0 2.79 3.031 12.0
spring
F     20.77
xtol opt 6.000
ftol opt 5.000
gtol opt 8.000
switch_min rfo gnorm 0.01
maxcyc 2000

output xyz 001/4/sp_mod_-60/sp_mod_-60_eig