single eigenvectors
cartesian
Al  core		1.333389862		-0.010252284		2.417005037
Al  core		1.235053		1.2379134		-0.0610234
Al  core		-0.268339585		0.776588564		-2.349080273
F   core		-1.701361404		-0.333969944		-2.202458277
F   core		2.067220392		-0.343398754		0.702450913
F   core		0.020662784		1.854391254		-3.782461594
F   core		-0.377886626		1.919813481		-0.817710495
F   core		2.602522153		2.403865509		-0.328097244
F   core		1.298404623		0.034276528		-1.585224377
F   core		0.454073671		1.511116423		1.657862302
F   core		2.51499453		0.629065019		3.639644609
F   core		-0.010248641		-1.164720659		2.829592986
F   shel		-1.701361404		-0.333969944		-2.202458277
F   shel		2.067220392		-0.343398754		0.702450913
F   shel		0.020662784		1.854391254		-3.782461594
F   shel		-0.377886626		1.919813481		-0.817710495
F   shel		2.602522153		2.403865509		-0.328097244
F   shel		1.298404623		0.034276528		-1.585224377
F   shel		0.454073671		1.511116423		1.657862302
F   shel		2.51499453		0.629065019		3.639644609
F   shel		-0.010248641		-1.164720659		2.829592986
species
Al core 3.00
F  core 0.59
F  shel -1.59
buck
Al  core  F   shel  3760.000831  0.222000   0.00000 0.0 10.0
buck4
F   shel  F   shel  1127.7 0.2753 15.83 2.0 2.79 3.031 12.0
spring
F     20.77
xtol opt 6.000
ftol opt 5.000
gtol opt 8.000
switch_min rfo gnorm 0.01
maxcyc 2000

output xyz 001/3/sp_mod_-20/sp_mod_-20_eig