opti shel conp eigenvectors
cartesian
Al  core		0.268913272		-2.329708711		-1.812804161
Al  core		2.09939933		-0.524630256		-0.947664524
Al  core		-0.393264406		0.294461003		-1.676167583
F   core		3.704729688		-0.159943816		-0.204129723
F   core		-0.174972274		-4.034209993		-2.211926536
F   core		2.252854238		-2.034788076		-2.181010389
F   core		1.522261495		0.690580139		-2.25662602
F   core		-1.554708522		1.634275831		-2.020578611
F   core		-1.393970486		-1.337454852		-1.188984069
F   core		0.187170126		-0.940476209		-3.139602581
F   core		0.505588296		0.361796198		-0.037613502
F   core		0.876194134		-1.85941311		-0.069434573
F   shel		3.704729688		-0.159943816		-0.204129723
F   shel		-0.174972274		-4.034209993		-2.211926536
F   shel		2.252854238		-2.034788076		-2.181010389
F   shel		1.522261495		0.690580139		-2.25662602
F   shel		-1.554708522		1.634275831		-2.020578611
F   shel		-1.393970486		-1.337454852		-1.188984069
F   shel		0.187170126		-0.940476209		-3.139602581
F   shel		0.505588296		0.361796198		-0.037613502
F   shel		0.876194134		-1.85941311		-0.069434573
species
Al core 3.00
F  core 0.59
F  shel -1.59
buck
Al  core  F   shel  3760.000831  0.222000   0.00000 0.0 10.0
buck4
F   shel  F   shel  1127.7 0.2753 15.83 2.0 2.79 3.031 12.0
spring
F     20.77
xtol opt 6.000
ftol opt 5.000
gtol opt 8.000
switch_min rfo gnorm 0.01
maxcyc 2000

output xyz 006/1/sp_mod_-70/sp_mod_-70_eig
output drv 006/1/sp_mod_-70/sp_mod_-70_F_out