opti shel conp eigenvectors
cartesian
Al  core		0.242180272		-2.432140411		-1.854643161
Al  core		1.99063753		-0.611608056		-0.836004724
Al  core		-0.347834406		0.230488703		-1.817032783
F   core		3.491904488		-0.209474416		-0.096487923
F   core		-0.230627874		-4.278232793		-2.287642036
F   core		2.322682738		-1.642994576		-2.240578989
F   core		1.472190495		0.574340239		-2.12313602
F   core		-1.412962722		1.571282831		-2.152476111
F   core		-1.267208186		-1.052125052		-0.924610869
F   core		-0.164187874		-0.773939209		-3.315084881
F   core		0.579844296		0.349287898		-0.189236302
F   core		1.240836734		-1.91583941		0.104006527
F   shel		3.491904488		-0.209474416		-0.096487923
F   shel		-0.230627874		-4.278232793		-2.287642036
F   shel		2.322682738		-1.642994576		-2.240578989
F   shel		1.472190495		0.574340239		-2.12313602
F   shel		-1.412962722		1.571282831		-2.152476111
F   shel		-1.267208186		-1.052125052		-0.924610869
F   shel		-0.164187874		-0.773939209		-3.315084881
F   shel		0.579844296		0.349287898		-0.189236302
F   shel		1.240836734		-1.91583941		0.104006527
species
Al core 3.00
F  core 0.59
F  shel -1.59
buck
Al  core  F   shel  3760.000831  0.222000   0.00000 0.0 10.0
buck4
F   shel  F   shel  1127.7 0.2753 15.83 2.0 2.79 3.031 12.0
spring
F     20.77
xtol opt 6.000
ftol opt 5.000
gtol opt 8.000
switch_min rfo gnorm 0.01
maxcyc 2000

output xyz 006/4/sp_mod_70/sp_mod_70_eig
output drv 006/4/sp_mod_70/sp_mod_70_F_out