single eigenvectors
cartesian
Al  core		-0.077088213		1.617853172		2.15429282
Al  core		2.503360896		2.560423425		1.737862375
Al  core		1.351768884		2.692771784		-0.676501654
F   core		1.033214978		2.974135336		2.934658463
F   core		-1.578365883		2.669934722		1.853725986
F   core		-0.426908271		0.141840134		3.31661663
F   core		1.748426553		0.827868793		1.718657865
F   core		3.028211745		1.978060653		-0.144934416
F   core		1.141816209		3.191104533		-2.401675012
F   core		1.621649294		3.979250587		0.715547667
F   core		4.089006168		3.025337177		2.48882878
F   core		0.016867809		1.71459901		0.122974693
F   shel		1.033214978		2.974135336		2.934658463
F   shel		-1.578365883		2.669934722		1.853725986
F   shel		-0.426908271		0.141840134		3.31661663
F   shel		1.748426553		0.827868793		1.718657865
F   shel		3.028211745		1.978060653		-0.144934416
F   shel		1.141816209		3.191104533		-2.401675012
F   shel		1.621649294		3.979250587		0.715547667
F   shel		4.089006168		3.025337177		2.48882878
F   shel		0.016867809		1.71459901		0.122974693
species
Al core 3.00
F  core 0.59
F  shel -1.59
buck
Al  core  F   shel  3760.000831  0.222000   0.00000 0.0 10.0
buck4
F   shel  F   shel  1127.7 0.2753 15.83 2.0 2.79 3.031 12.0
spring
F     20.77
xtol opt 6.000
ftol opt 5.000
gtol opt 8.000
switch_min rfo gnorm 0.01
maxcyc 2000

output xyz 004/1/sp_mod_80/sp_mod_80_eig