opti shel conp eigenvectors
cartesian
Al  core		0.359141393		-0.654972658		1.680012339
Al  core		2.269050365		-1.765171072		-0.495625997
Al  core		-0.822233181		-1.804871658		-0.945969743
F   core		3.421101807		-0.571681193		-1.08135958
F   core		-1.788961754		-0.638592388		-1.840370997
F   core		2.724345095		-3.469950694		-0.495989943
F   core		-1.215485066		-3.520548802		-1.06995142
F   core		1.855283697		-1.397345393		1.157944602
F   core		0.822535664		-1.536987782		-1.423098765
F   core		0.121429852		-1.134731663		3.354022489
F   core		0.402714071		1.061664699		1.229585036
F   core		-0.906746768		-1.432817383		0.755567014
F   shel		3.421101807		-0.571681193		-1.08135958
F   shel		-1.788961754		-0.638592388		-1.840370997
F   shel		2.724345095		-3.469950694		-0.495989943
F   shel		-1.215485066		-3.520548802		-1.06995142
F   shel		1.855283697		-1.397345393		1.157944602
F   shel		0.822535664		-1.536987782		-1.423098765
F   shel		0.121429852		-1.134731663		3.354022489
F   shel		0.402714071		1.061664699		1.229585036
F   shel		-0.906746768		-1.432817383		0.755567014
species
Al core 3.00
F  core 0.59
F  shel -1.59
buck
Al  core  F   shel  3760.000831  0.222000   0.00000 0.0 10.0
buck4
F   shel  F   shel  1127.7 0.2753 15.83 2.0 2.79 3.031 12.0
spring
F     20.77
xtol opt 6.000
ftol opt 5.000
gtol opt 8.000
switch_min rfo gnorm 0.01
maxcyc 2000

output xyz 002/4/sp_mod_30/sp_mod_30_eig
output drv 002/4/sp_mod_30/sp_mod_30_F_out