opti shel conp eigenvectors
cartesian
Al  core		1.27844968		0.053822517		2.446046473
Al  core		1.2056776		1.2721734		-0.0454954
Al  core		-0.323279562		0.84066345		-2.320038373
F   core		-1.574902572		-0.481457653		-2.269304806
F   core		1.923275853		-0.355572353		0.713911052
F   core		0.052554139		1.81719489		-3.799320533
F   core		-0.35741421		2.062100953		-0.836005449
F   core		2.657551757		2.339685312		-0.357186643
F   core		1.175036439		0.011995005		-1.512537454
F   core		0.495121917		1.643295629		1.700793839
F   core		2.546885969		0.591868676		3.622786237
F   core		0.116210275		-1.312208552		2.762744871
F   shel		-1.574902572		-0.481457653		-2.269304806
F   shel		1.923275853		-0.355572353		0.713911052
F   shel		0.052554139		1.81719489		-3.799320533
F   shel		-0.35741421		2.062100953		-0.836005449
F   shel		2.657551757		2.339685312		-0.357186643
F   shel		1.175036439		0.011995005		-1.512537454
F   shel		0.495121917		1.643295629		1.700793839
F   shel		2.546885969		0.591868676		3.622786237
F   shel		0.116210275		-1.312208552		2.762744871
species
Al core 3.00
F  core 0.59
F  shel -1.59
buck
Al  core  F   shel  3760.000831  0.222000   0.00000 0.0 10.0
buck4
F   shel  F   shel  1127.7 0.2753 15.83 2.0 2.79 3.031 12.0
spring
F     20.77
xtol opt 6.000
ftol opt 5.000
gtol opt 8.000
switch_min rfo gnorm 0.01
maxcyc 2000

output xyz 001/2/sp_mod_-40/sp_mod_-40_eig
output drv 001/2/sp_mod_-40/sp_mod_-40_F_out