single eigenvectors
cartesian
Al  core		-1.704213789		2.558666685		-1.226730006
Al  core		-0.56625877		0.002425204		-2.382732756
Al  core		-2.162090986		-0.340360712		-0.483942649
F   core		-0.72981068		3.691589911		-0.192706573
F   core		-3.05862057		3.167668866		-2.270683319
F   core		-1.378910888		-1.675404637		-1.718380754
F   core		-2.48197968		1.44869971		0.086077385
F   core		-3.17371353		-1.305733546		0.665590364
F   core		0.55140669		-0.51262746		-3.7091486
F   core		-0.372626293		1.897796922		-2.391123322
F   core		-2.484716957		0.468109551		-2.271392828
F   core		-0.268290563		0.16598518		-0.438861988
F   shel		-0.72981068		3.691589911		-0.192706573
F   shel		-3.05862057		3.167668866		-2.270683319
F   shel		-1.378910888		-1.675404637		-1.718380754
F   shel		-2.48197968		1.44869971		0.086077385
F   shel		-3.17371353		-1.305733546		0.665590364
F   shel		0.55140669		-0.51262746		-3.7091486
F   shel		-0.372626293		1.897796922		-2.391123322
F   shel		-2.484716957		0.468109551		-2.271392828
F   shel		-0.268290563		0.16598518		-0.438861988
species
Al core 3.00
F  core 0.59
F  shel -1.59
buck
Al  core  F   shel  3760.000831  0.222000   0.00000 0.0 10.0
buck4
F   shel  F   shel  1127.7 0.2753 15.83 2.0 2.79 3.031 12.0
spring
F     20.77
xtol opt 6.000
ftol opt 5.000
gtol opt 8.000
switch_min rfo gnorm 0.01
maxcyc 2000

output xyz 005/0/sp_mod_20/sp_mod_20_eig