opti shel conp eigenvectors
cartesian
Al  core		0.274928672		-2.330353111		-1.827686961
Al  core		2.03685933		-0.540457456		-0.806396824
Al  core		-0.336739106		0.310932603		-1.802551783
F   core		3.627615088		-0.179455816		-0.030374523
F   core		-0.167526674		-4.034833193		-2.230200636
F   core		2.117272838		-1.841045576		-2.264695289
F   core		1.531318395		0.689205739		-2.24061682
F   core		-1.485039422		1.654411031		-2.176060411
F   core		-1.167876286		-1.280507452		-1.027206969
F   core		-0.156544174		-1.025446209		-3.218973881
F   core		0.519986296		0.434144398		-0.048849802
F   core		1.105940734		-2.09610681		-0.072928373
F   shel		3.627615088		-0.179455816		-0.030374523
F   shel		-0.167526674		-4.034833193		-2.230200636
F   shel		2.117272838		-1.841045576		-2.264695289
F   shel		1.531318395		0.689205739		-2.24061682
F   shel		-1.485039422		1.654411031		-2.176060411
F   shel		-1.167876286		-1.280507452		-1.027206969
F   shel		-0.156544174		-1.025446209		-3.218973881
F   shel		0.519986296		0.434144398		-0.048849802
F   shel		1.105940734		-2.09610681		-0.072928373
species
Al core 3.00
F  core 0.59
F  shel -1.59
buck
Al  core  F   shel  3760.000831  0.222000   0.00000 0.0 10.0
buck4
F   shel  F   shel  1127.7 0.2753 15.83 2.0 2.79 3.031 12.0
spring
F     20.77
xtol opt 6.000
ftol opt 5.000
gtol opt 8.000
switch_min rfo gnorm 0.01
maxcyc 2000

output xyz 006/3/sp_mod_10/sp_mod_10_eig
output drv 006/3/sp_mod_10/sp_mod_10_F_out