opti shel conp eigenvectors
cartesian
Al  core		1.25296668		0.083543817		2.459517573
Al  core		1.276784		1.189243		-0.083083
Al  core		-0.289432062		0.80118825		-2.337930273
F   core		-1.535949672		-0.526888453		-2.289897106
F   core		1.928066753		-0.418508953		0.735307452
F   core		-0.054642861		1.94221829		-3.742654833
F   core		-0.42625681		1.808922753		-0.711133549
F   core		2.587876557		2.420946512		-0.320355443
F   core		1.365430239		0.123408905		-1.701662754
F   core		0.541006117		1.647130429		1.652610039
F   core		2.648139469		0.473779076		3.569262437
F   core		-0.114049825		-1.043659352		2.884463571
F   shel		-1.535949672		-0.526888453		-2.289897106
F   shel		1.928066753		-0.418508953		0.735307452
F   shel		-0.054642861		1.94221829		-3.742654833
F   shel		-0.42625681		1.808922753		-0.711133549
F   shel		2.587876557		2.420946512		-0.320355443
F   shel		1.365430239		0.123408905		-1.701662754
F   shel		0.541006117		1.647130429		1.652610039
F   shel		2.648139469		0.473779076		3.569262437
F   shel		-0.114049825		-1.043659352		2.884463571
species
Al core 3.00
F  core 0.59
F  shel -1.59
buck
Al  core  F   shel  3760.000831  0.222000   0.00000 0.0 10.0
buck4
F   shel  F   shel  1127.7 0.2753 15.83 2.0 2.79 3.031 12.0
spring
F     20.77
xtol opt 6.000
ftol opt 5.000
gtol opt 8.000
switch_min rfo gnorm 0.01
maxcyc 2000

output xyz 001/2/sp_mod_-50/sp_mod_-50_eig
output drv 001/2/sp_mod_-50/sp_mod_-50_F_out