opti shel conp eigenvectors
cartesian
Al  core		-0.144493057		1.594201996		2.327688921
Al  core		2.474361896		2.519468625		1.719200575
Al  core		1.316074058		2.561751781		-0.564375053
F   core		0.943516152		3.156073519		2.698815832
F   core		-1.495248547		2.862826143		2.014872295
F   core		-0.36072686		-0.202474418		2.71600466
F   core		1.716442169		0.793119585		1.919413234
F   core		3.136113942		2.043961272		-0.101259054
F   core		1.118501714		3.056511152		-2.289929004
F   core		1.827495668		4.011257787		0.571611465
F   core		4.034077566		3.127562811		2.388067568
F   core		-0.0888398		1.886409368		0.368801705
F   shel		0.943516152		3.156073519		2.698815832
F   shel		-1.495248547		2.862826143		2.014872295
F   shel		-0.36072686		-0.202474418		2.71600466
F   shel		1.716442169		0.793119585		1.919413234
F   shel		3.136113942		2.043961272		-0.101259054
F   shel		1.118501714		3.056511152		-2.289929004
F   shel		1.827495668		4.011257787		0.571611465
F   shel		4.034077566		3.127562811		2.388067568
F   shel		-0.0888398		1.886409368		0.368801705
species
Al core 3.00
F  core 0.59
F  shel -1.59
buck
Al  core  F   shel  3760.000831  0.222000   0.00000 0.0 10.0
buck4
F   shel  F   shel  1127.7 0.2753 15.83 2.0 2.79 3.031 12.0
spring
F     20.77
xtol opt 6.000
ftol opt 5.000
gtol opt 8.000
switch_min rfo gnorm 0.01
maxcyc 2000

output xyz 004/3/sp_mod_-60/sp_mod_-60_eig
output drv 004/3/sp_mod_-60/sp_mod_-60_F_out