opti shel conp eigenvectors
cartesian
Al  core		0.331241093		-0.482866858		1.856355639
Al  core		2.292414065		-1.762553272		-0.481345097
Al  core		-0.848757981		-1.802894358		-0.938956943
F   core		3.503527407		-0.467174093		-1.12732588
F   core		-1.857451154		-0.536023588		-1.908322797
F   core		2.749554995		-3.614179294		-0.492387243
F   core		-1.237039766		-3.665377702		-1.07316142
F   core		1.962204297		-1.454221793		1.148599302
F   core		0.830475164		-1.512815282		-1.479728265
F   core		0.123475552		-1.142564663		3.340670989
F   core		0.403577471		1.033131699		1.226173736
F   core		-1.005093068		-1.492329883		0.716318014
F   shel		3.503527407		-0.467174093		-1.12732588
F   shel		-1.857451154		-0.536023588		-1.908322797
F   shel		2.749554995		-3.614179294		-0.492387243
F   shel		-1.237039766		-3.665377702		-1.07316142
F   shel		1.962204297		-1.454221793		1.148599302
F   shel		0.830475164		-1.512815282		-1.479728265
F   shel		0.123475552		-1.142564663		3.340670989
F   shel		0.403577471		1.033131699		1.226173736
F   shel		-1.005093068		-1.492329883		0.716318014
species
Al core 3.00
F  core 0.59
F  shel -1.59
buck
Al  core  F   shel  3760.000831  0.222000   0.00000 0.0 10.0
buck4
F   shel  F   shel  1127.7 0.2753 15.83 2.0 2.79 3.031 12.0
spring
F     20.77
xtol opt 6.000
ftol opt 5.000
gtol opt 8.000
switch_min rfo gnorm 0.01
maxcyc 2000

output xyz 002/5/sp_mod_30/sp_mod_30_eig
output drv 002/5/sp_mod_30/sp_mod_30_F_out