single eigenvectors
cartesian
Al  core		-0.367885238		1.03130436		-1.879964736
Al  core		-0.556902981		1.053717691		1.437094201
Al  core		-2.977482903		0.467934478		-1.847827209
F   core		-3.514022655		0.319457336		-3.552953761
F   core		-1.489619358		-0.666649304		-1.847889338
F   core		-2.090721893		2.114704989		-1.900936761
F   core		-2.070199777		0.707425055		0.428188909
F   core		0.774088416		1.307245697		-0.352127575
F   core		-0.287782981		2.814042004		2.013163371
F   core		0.410343208		-0.416257671		2.074770158
F   core		-4.237538167		0.218948526		-0.624335713
F   core		0.832681019		1.263464903		-3.311580444
F   shel		-3.514022655		0.319457336		-3.552953761
F   shel		-1.489619358		-0.666649304		-1.847889338
F   shel		-2.090721893		2.114704989		-1.900936761
F   shel		-2.070199777		0.707425055		0.428188909
F   shel		0.774088416		1.307245697		-0.352127575
F   shel		-0.287782981		2.814042004		2.013163371
F   shel		0.410343208		-0.416257671		2.074770158
F   shel		-4.237538167		0.218948526		-0.624335713
F   shel		0.832681019		1.263464903		-3.311580444
species
Al core 3.00
F  core 0.59
F  shel -1.59
buck
Al  core  F   shel  3760.000831  0.222000   0.00000 0.0 10.0
buck4
F   shel  F   shel  1127.7 0.2753 15.83 2.0 2.79 3.031 12.0
spring
F     20.77
xtol opt 6.000
ftol opt 5.000
gtol opt 8.000
switch_min rfo gnorm 0.01
maxcyc 2000

output xyz 003/4/sp_mod_40/sp_mod_40_eig