opti shel conp eigenvectors
cartesian
Al  core		-0.369815238		1.03031036		-1.910210536
Al  core		-0.611416114		1.043418653		1.514809036
Al  core		-2.956263319		0.472625089		-1.842333942
F   core		-3.505180461		0.321814408		-3.529566508
F   core		-1.545828957		-0.718905301		-1.850692045
F   core		-2.163466287		2.138956803		-1.905198583
F   core		-2.088170725		0.703278539		0.414420824
F   core		0.862924327		1.325897843		-0.380805711
F   core		-0.280766175		2.851500197		2.024321147
F   core		0.432109115		-0.447044858		2.087229445
F   core		-4.217935492		0.22276987		-0.646102565
F   core		0.875515227		1.271981537		-3.350417629
F   shel		-3.505180461		0.321814408		-3.529566508
F   shel		-1.545828957		-0.718905301		-1.850692045
F   shel		-2.163466287		2.138956803		-1.905198583
F   shel		-2.088170725		0.703278539		0.414420824
F   shel		0.862924327		1.325897843		-0.380805711
F   shel		-0.280766175		2.851500197		2.024321147
F   shel		0.432109115		-0.447044858		2.087229445
F   shel		-4.217935492		0.22276987		-0.646102565
F   shel		0.875515227		1.271981537		-3.350417629
species
Al core 3.00
F  core 0.59
F  shel -1.59
buck
Al  core  F   shel  3760.000831  0.222000   0.00000 0.0 10.0
buck4
F   shel  F   shel  1127.7 0.2753 15.83 2.0 2.79 3.031 12.0
spring
F     20.77
xtol opt 6.000
ftol opt 5.000
gtol opt 8.000
switch_min rfo gnorm 0.01
maxcyc 2000

output xyz 003/4/sp_mod_60/sp_mod_60_eig
output drv 003/4/sp_mod_60/sp_mod_60_F_out