opti shel conp eigenvectors
cartesian
Al  core		-0.104213257		1.664974396		2.133281721
Al  core		2.518222696		2.644275625		1.811861775
Al  core		1.398786258		2.611401381		-0.633213853
F   core		0.971201952		3.098448519		2.873902632
F   core		-1.640041147		2.650101543		2.158833095
F   core		-0.44889086		-0.020181818		2.73784266
F   core		1.793906769		0.907091985		1.903665634
F   core		3.001782542		1.839975672		-0.057199854
F   core		1.063726714		3.043766152		-2.361841404
F   core		1.752728868		3.987683987		0.643029665
F   core		4.175699566		3.098084211		2.383749568
F   core		-0.0376106		1.838052768		0.207692305
F   shel		0.971201952		3.098448519		2.873902632
F   shel		-1.640041147		2.650101543		2.158833095
F   shel		-0.44889086		-0.020181818		2.73784266
F   shel		1.793906769		0.907091985		1.903665634
F   shel		3.001782542		1.839975672		-0.057199854
F   shel		1.063726714		3.043766152		-2.361841404
F   shel		1.752728868		3.987683987		0.643029665
F   shel		4.175699566		3.098084211		2.383749568
F   shel		-0.0376106		1.838052768		0.207692305
species
Al core 3.00
F  core 0.59
F  shel -1.59
buck
Al  core  F   shel  3760.000831  0.222000   0.00000 0.0 10.0
buck4
F   shel  F   shel  1127.7 0.2753 15.83 2.0 2.79 3.031 12.0
spring
F     20.77
xtol opt 6.000
ftol opt 5.000
gtol opt 8.000
switch_min rfo gnorm 0.01
maxcyc 2000

output xyz 004/2/sp_mod_20/sp_mod_20_eig
output drv 004/2/sp_mod_20/sp_mod_20_F_out