opti shel conp eigenvectors
cartesian
Al  core		-0.362095238		1.03428636		-1.789227336
Al  core		-0.393364114		1.084614653		1.203949836
Al  core		-3.041141719		0.453862689		-1.864305942
F   core		-3.540549261		0.312386408		-3.623114508
F   core		-1.320990557		-0.509881301		-1.839480845
F   core		-1.872488687		2.041949603		-1.888150583
F   core		-2.016287525		0.719864139		0.469493624
F   core		0.507580327		1.251289043		-0.266092911
F   core		-0.308834175		2.701667397		1.979689947
F   core		0.345045115		-0.323896058		2.037392645
F   core		-4.296346692		0.20748427		-0.559034565
F   core		0.704178427		1.237915137		-3.195068829
F   shel		-3.540549261		0.312386408		-3.623114508
F   shel		-1.320990557		-0.509881301		-1.839480845
F   shel		-1.872488687		2.041949603		-1.888150583
F   shel		-2.016287525		0.719864139		0.469493624
F   shel		0.507580327		1.251289043		-0.266092911
F   shel		-0.308834175		2.701667397		1.979689947
F   shel		0.345045115		-0.323896058		2.037392645
F   shel		-4.296346692		0.20748427		-0.559034565
F   shel		0.704178427		1.237915137		-3.195068829
species
Al core 3.00
F  core 0.59
F  shel -1.59
buck
Al  core  F   shel  3760.000831  0.222000   0.00000 0.0 10.0
buck4
F   shel  F   shel  1127.7 0.2753 15.83 2.0 2.79 3.031 12.0
spring
F     20.77
xtol opt 6.000
ftol opt 5.000
gtol opt 8.000
switch_min rfo gnorm 0.01
maxcyc 2000

output xyz 003/4/sp_mod_-20/sp_mod_-20_eig
output drv 003/4/sp_mod_-20/sp_mod_-20_F_out