opti shel conp eigenvectors
cartesian
Al  core		0.337369793		-0.521682958		1.817708339
Al  core		2.311777165		-1.771283472		-0.494047897
Al  core		-0.863466981		-1.812062158		-0.956623343
F   core		3.494404507		-0.476892993		-1.12247698
F   core		-1.849849054		-0.545527688		-1.901037397
F   core		2.745315795		-3.596900094		-0.492213043
F   core		-1.233462366		-3.647998202		-1.07184852
F   core		1.940376197		-1.441140993		1.169340002
F   core		0.830920164		-1.511374482		-1.482910065
F   core		0.118620952		-1.152496963		3.374870089
F   core		0.404480171		1.067139899		1.216979536
F   core		-0.990424668		-1.478780383		0.742375614
F   shel		3.494404507		-0.476892993		-1.12247698
F   shel		-1.849849054		-0.545527688		-1.901037397
F   shel		2.745315795		-3.596900094		-0.492213043
F   shel		-1.233462366		-3.647998202		-1.07184852
F   shel		1.940376197		-1.441140993		1.169340002
F   shel		0.830920164		-1.511374482		-1.482910065
F   shel		0.118620952		-1.152496963		3.374870089
F   shel		0.404480171		1.067139899		1.216979536
F   shel		-0.990424668		-1.478780383		0.742375614
species
Al core 3.00
F  core 0.59
F  shel -1.59
buck
Al  core  F   shel  3760.000831  0.222000   0.00000 0.0 10.0
buck4
F   shel  F   shel  1127.7 0.2753 15.83 2.0 2.79 3.031 12.0
spring
F     20.77
xtol opt 6.000
ftol opt 5.000
gtol opt 8.000
switch_min rfo gnorm 0.01
maxcyc 2000

output xyz 002/5/sp_mod_20/sp_mod_20_eig
output drv 002/5/sp_mod_20/sp_mod_20_F_out