opti shel conp eigenvectors
cartesian
Al  core		1.28270198		0.049290017		2.443208573
Al  core		1.2879684		1.1997502		-0.0851071
Al  core		-0.318637762		0.83593955		-2.321717273
F   core		-1.670128172		-0.369906653		-2.217914006
F   core		2.082213253		-0.390194553		0.773183452
F   core		0.050117739		1.82112149		-3.797751533
F   core		-0.39882281		1.951193953		-0.781870749
F   core		2.614091457		2.445574012		-0.325099643
F   core		1.264176739		0.011660005		-1.660952054
F   core		0.419211617		1.549337329		1.652265139
F   core		2.544389569		0.595824776		3.624176637
F   core		0.020411175		-1.200375852		2.812429371
F   shel		-1.670128172		-0.369906653		-2.217914006
F   shel		2.082213253		-0.390194553		0.773183452
F   shel		0.050117739		1.82112149		-3.797751533
F   shel		-0.39882281		1.951193953		-0.781870749
F   shel		2.614091457		2.445574012		-0.325099643
F   shel		1.264176739		0.011660005		-1.660952054
F   shel		0.419211617		1.549337329		1.652265139
F   shel		2.544389569		0.595824776		3.624176637
F   shel		0.020411175		-1.200375852		2.812429371
species
Al core 3.00
F  core 0.59
F  shel -1.59
buck
Al  core  F   shel  3760.000831  0.222000   0.00000 0.0 10.0
buck4
F   shel  F   shel  1127.7 0.2753 15.83 2.0 2.79 3.031 12.0
spring
F     20.77
xtol opt 6.000
ftol opt 5.000
gtol opt 8.000
switch_min rfo gnorm 0.01
maxcyc 2000

output xyz 001/4/sp_mod_10/sp_mod_10_eig
output drv 001/4/sp_mod_10/sp_mod_10_F_out