single eigenvectors
cartesian
Al  core		-0.374150438		1.08014296		-1.820366736
Al  core		-0.447039581		1.070441291		1.281738601
Al  core		-2.997283903		0.353804078		-1.856815409
F   core		-3.552680455		0.411788336		-3.601578561
F   core		-1.306931158		-0.579737904		-1.817474938
F   core		-2.001771893		2.020271989		-1.916009761
F   core		-2.039200177		0.738584655		0.455289309
F   core		0.600805416		1.249633097		-0.294383775
F   core		-0.308375181		2.737072404		1.988860571
F   core		0.373616208		-0.353772271		2.051860558
F   core		-4.288748367		0.266851726		-0.581861113
F   core		0.750657819		1.229565503		-3.233584444
F   shel		-3.552680455		0.411788336		-3.601578561
F   shel		-1.306931158		-0.579737904		-1.817474938
F   shel		-2.001771893		2.020271989		-1.916009761
F   shel		-2.039200177		0.738584655		0.455289309
F   shel		0.600805416		1.249633097		-0.294383775
F   shel		-0.308375181		2.737072404		1.988860571
F   shel		0.373616208		-0.353772271		2.051860558
F   shel		-4.288748367		0.266851726		-0.581861113
F   shel		0.750657819		1.229565503		-3.233584444
species
Al core 3.00
F  core 0.59
F  shel -1.59
buck
Al  core  F   shel  3760.000831  0.222000   0.00000 0.0 10.0
buck4
F   shel  F   shel  1127.7 0.2753 15.83 2.0 2.79 3.031 12.0
spring
F     20.77
xtol opt 6.000
ftol opt 5.000
gtol opt 8.000
switch_min rfo gnorm 0.01
maxcyc 2000

output xyz 003/3/sp_mod_-20/sp_mod_-20_eig