single eigenvectors
cartesian
Al  core		-0.359447038		1.01210816		-1.819069136
Al  core		-0.446569181		1.068264491		1.281780001
Al  core		-3.023724903		0.476148878		-1.859148809
F   core		-3.548478655		0.392346936		-3.601207961
F   core		-1.392334558		-0.566911304		-1.883481538
F   core		-1.929802493		2.069604989		-1.851188761
F   core		-2.015870577		0.630636455		0.457347909
F   core		0.606418416		1.223661297		-0.293888575
F   core		-0.360484381		2.770023804		1.919817771
F   core		0.406930608		-0.299757471		2.119244958
F   core		-4.273468367		0.196150326		-0.580512713
F   core		0.747888619		1.242378303		-3.233828644
F   shel		-3.548478655		0.392346936		-3.601207961
F   shel		-1.392334558		-0.566911304		-1.883481538
F   shel		-1.929802493		2.069604989		-1.851188761
F   shel		-2.015870577		0.630636455		0.457347909
F   shel		0.606418416		1.223661297		-0.293888575
F   shel		-0.360484381		2.770023804		1.919817771
F   shel		0.406930608		-0.299757471		2.119244958
F   shel		-4.273468367		0.196150326		-0.580512713
F   shel		0.747888619		1.242378303		-3.233828644
species
Al core 3.00
F  core 0.59
F  shel -1.59
buck
Al  core  F   shel  3760.000831  0.222000   0.00000 0.0 10.0
buck4
F   shel  F   shel  1127.7 0.2753 15.83 2.0 2.79 3.031 12.0
spring
F     20.77
xtol opt 6.000
ftol opt 5.000
gtol opt 8.000
switch_min rfo gnorm 0.01
maxcyc 2000

output xyz 003/1/sp_mod_-20/sp_mod_-20_eig